
                                 *****************
                                 * O   R   C   A *
                                 *****************

                                            #,                                       
                                            ###                                      
                                            ####                                     
                                            #####                                    
                                            ######                                   
                                           ########,                                 
                                     ,,################,,,,,                         
                               ,,#################################,,                 
                          ,,##########################################,,             
                       ,#########################################, ''#####,          
                    ,#############################################,,   '####,        
                  ,##################################################,,,,####,       
                ,###########''''           ''''###############################       
              ,#####''   ,,,,##########,,,,          '''####'''          '####       
            ,##' ,,,,###########################,,,                        '##       
           ' ,,###''''                  '''############,,,                           
         ,,##''                                '''############,,,,        ,,,,,,###''
      ,#''                                            '''#######################'''  
     '                                                          ''''####''''         
             ,#######,   #######,   ,#######,      ##                                
            ,#'     '#,  ##    ##  ,#'     '#,    #''#        ,####,    ,#,          
            ##       ##  ##   ,#'  ##            #'  '#       #'       ,# #          
            ##       ##  #######   ##           ,######,      #####,      #          
            '#,     ,#'  ##    ##  '#,     ,#' ,#      #,     #,   #      #          
             '#######'   ##     ##  '#######'  #'      '#     '####' #    #          



                #########################################################
                #                        -***-                          #
                #          Department of theory and spectroscopy        #
                #                                                       #
                #                      Frank Neese                      #
                #                                                       #
                #     Directorship, Architecture, Infrastructure        #
                #                    SHARK, DRIVERS                     #
                #        Core code/Algorithms in most modules           #
                #                                                       #
                #        Max Planck Institute fuer Kohlenforschung      #
                #                Kaiser Wilhelm Platz 1                 #
                #                 D-45470 Muelheim/Ruhr                 #
                #                      Germany                          #
                #                                                       #
                #                  All rights reserved                  #
                #                        -***-                          #
                #########################################################


                         Program Version 6.1.1  -  RELEASE   -
                                (GIT: $487d211c$)
                          ($2025-11-21 10:33:24 +0100$)


 With contributions from (in alphabetic order):
[Max-Planck-Institut fuer Kohlenforschung]                               
  Daniel Aravena         : Magnetic Suceptibility                        
  Michael Atanasov       : Ab Initio Ligand Field Theory (pilot matlab implementation)
  Alexander A. Auer      : GIAO ZORA, VPT2 properties, NMR spectrum      
  Ute Becker             : All parallelization in ORCA, NUMFREQ, NUMCALC 
  Giovanni Bistoni       : ED, misc. LED, open-shell LED, HFLD           
  Dmytro Bykov           : pre 5.0 version of the SCF Hessian            
  Marcos Casanova-Páez   : Triplet and SCS-CIS(D). UHF-(DLPNO)-IP/EA/STEOM-CCSD. UHF-CVS-IP/STEOM-CCSD   
  Vijay G. Chilkuri      : MRCI spin determinant printing, contributions to CSF-ICE 
  Pauline Colinet        : FMM embedding                                 
  Dipayan Datta          : RHF DLPNO-CCSD density                        
  Achintya Kumar Dutta   : EOM-CC, STEOM-CC                              
  Nicolas Foglia         : Exact transition moments, OPA infrastructure, MCD improvements    
  Dmitry Ganyushin       : Spin-Orbit,Spin-Spin,Magnetic field MRCI      
  Miquel Garcia-Rates    : C-PCM and meta-GGA Hessian, CCSD/C-PCM, Gaussian charge scheme 
  Tiago L. C. Gouveia    : GS-ROHF, GS-ROCIS                             
  Yang Guo               : DLPNO-NEVPT2, F12-NEVPT2, CIM, IAO-localization        
  Andreas Hansen         : Spin unrestricted coupled pair/coupled cluster methods 
  Ingolf Harden          : AUTO-CI MPn and infrastructure                
  Benjamin Helmich-Paris : MC-RPA, TRAH-(SCF,CASSCF), AVAS, COSX integrals, SCF dyn. polar., MC-PDFT, srDFT 
  Lee Huntington         : MR-EOM, pCC                                   
  Robert Izsak           : Overlap fitted RIJCOSX, COSX-SCS-MP3, EOM     
  Riya Kayal             : Wick's Theorem for AUTO-CI, AUTO-CI UHF-CCSDT 
  Emily Kempfer          : AUTO-CI RHF CISDT and CCSDT, approximate NEVPT4
  Christian Kollmar      : KDIIS, OOCD, Brueckner-CCSD(T), CCSD density, CASPT2, CASPT2-K, improved NEVPT2 
  Axel Koslowski         : Symmetry handling                             
  Simone Kossmann        : meta-GGA functionals, TD-DFT gradient, OOMP2, (MP2 Hessian; deprecated post 5.0) 
  Lucas Lang             : DCDCAS, Hyperfine gauge corrections, ICE-SOC+SSC
  Marvin Lechner         : AUTO-CI (C++ implementation), FIC-MRCC        
  Spencer Leger          : CASSCF response                               
  Dagmar Lenk            : GEPOL surface, SMD, ORCA-2-JSON               
  Dimitrios Liakos       : Extrapolation schemes; Compound Job, Property file
  Dimitrios Manganas     : Further ROCIS development; embedding schemes. LFT, Crystal Embedding 
  Dimitrios Pantazis     : SARC Basis sets                               
  Anastasios Papadopoulos: AUTO-CI, single reference methods and gradients 
  Taras Petrenko         : pre 6.0 DFT Hessian and TD-DFT gradient,  ECA, NRVS 
  Petra Pikulova         : Analytic Raman intensities                    
  Peter Pinski           : DLPNO-MP2, DLPNO-MP2 Gradient                 
  Shashank Vittal Rao    : ES-AILFT, MagRelax                            
  Christoph Reimann      : Effective Core Potentials                     
  Marius Retegan         : Local ZFS, SOC                                
  Christoph Riplinger    : Optimizer, TS searches, QM/MM, DLPNO-CCSD(T), (RO)-DLPNO pert. Triples 
  Michael Roemelt        : Original ROCIS implementation, recursive CI coupling coefficients
  Masaaki Saitow         : Open-shell DLPNO-CCSD energy and density      
  Barbara Sandhoefer     : DKH picture change effects                    
  Yorick L. A. Schmerwitz: GMF and freeze-and-release deltaSCF, NEB S-IDPP initial path                    
  Kantharuban Sivalingam : CASSCF convergence/infrastructure, NEVPT2, NEVPT3, NEVPT4(SD), FIC-MRCI and CEPA variants
  Bernardo de Souza      : ESD, SOC TD-DFT                               
  Georgi L. Stoychev     : AutoAux, RI-MP2 NMR, DLPNO-MP2 response, X2C  
  Van Anh Tran           : RI-MP2 g-tensors                              
  Willem Van den Heuvel  : Paramagnetic NMR                              
  Zikuan Wang            : NOTCH, Electric field optimization            
  Frank Wennmohs         : Technical directorship and infrastructure     
  Hang Xu                : AUTO-CI-Response properties                   
                                                                         
[FACCTs GmbH]                                                            
  Markus Bursch, Nicolas Foglia, Miquel Garcia-Rates, Ingolf Harden, Hagen Neugebauer, Anastasios Papadopoulos, 
  Christoph Riplinger, Bernardo de Souza, Georgi L. Stoychev                                                    
                                                                 
  APM, various basis sets, CI-OPT, improved COSX, DLPNO-Multilevel,           
  DOCKER, DRACO, updates on ESD, Fragmentator, GOAT, IRC, LR-CPCM, L-BFGS, MBIS, meta-GGA TD-DFT gradient, ML-optimized integration grids, 
  MM, NACMEs, nearIR, NEB, NEB-TS, NL-DFT gradient (VV10), 2- and 3-layer-ONIOM, interface openCOSMO-RS, QMMM,   
  Crystal-QMMM, RESP, rigid body optimization, SF, symmetry and pop. for TD-DFT, various functionals, SOLVATOR                                   
                                                                         
[Other institutions]                                                     
  V. Asgeirsson          : NEB                                           
  Christoph Bannwarth    : sTDA-DFT, sTD-DFT, PBEh-3c, B97-3c, D3        
  Giovanni Bistoni       : ETS/NOCV, ADLD/ADEX, COVALED                  
  Martin Brehm           : Molecular dynamics                            
  Ronald Cardenas        : ETS/NOCV                                      
  Martina Colucci        : COVALED                                       
  Sebastian Ehlert       : rSCAN, r2SCAN, r2SCAN-3c, D4, dhf basis sets  
  Marvin Friede          : D4 for Fr, Ra, Ac-Lr                          
  Lars Goerigk           : TD-DFT with DH, B97 family of functionals     
  Stefan Grimme          : VdW corrections, initial TS optimization, DFT functionals, gCP, sTDA/sTD-DF 
  Waldemar Hujo          : DFT-NL                                        
  H. Jonsson             : NEB                                           
  Holger Kruse           : gCP                                           
  Marcel Mueller         : wB97X-3c, vDZP basis set                      
  Hagen Neugebauer       : wr2SCAN, Native XTB                           
  Gianluca Regni         : ADLD/ADEX                                     
  Tobias Risthaus        : pre 6.0 range-separated hybrid DFT and stability analysis
  Lukas Wittmann         : regularized MP2, r2SCAN double-hybrids, wr2SCAN        
                                                                         
We gratefully acknowledge several colleagues who have allowed us to      
interface, adapt or use parts of their codes:                            
  Ed Valeev, F. Pavosevic, A. Kumar             : LibInt (2-el integral package), F12 methods 
  Garnet Chan, S. Sharma, J. Yang, R. Olivares  : DMRG                   
  Ulf Ekstrom                                   : XCFun DFT Library      
  Mihaly Kallay                                 : mrcc  (arbitrary order and MRCC methods)
  Frank Weinhold                                : gennbo (NPA and NBO analysis)           
  Simon Mueller                                 : openCOSMO-RS                            
  Christopher J. Cramer and Donald G. Truhlar   : smd solvation model                     
  S Lehtola, MJT Oliveira, MAL Marques          : LibXC Library                           
  Liviu Ungur et al                             : ANISO software                          


 Your calculation uses the libint2 library for the computation of 2-el integrals
 For citations please refer to: http://libint.valeyev.net

 Your ORCA version has been built with support for libXC version: 7.0.0
 For citations please refer to: https://libxc.gitlab.io

 This ORCA versions uses:
   CBLAS   interface :  Fast vector & matrix operations
   LAPACKE interface :  Fast linear algebra routines
   SCALAPACK package :  Parallel linear algebra routines
   Shared memory     :  Shared parallel matrices
   BLAS/LAPACK       :  OpenBLAS 0.3.29  USE64BITINT DYNAMIC_ARCH NO_AFFINITY Haswell SINGLE_THREADED
        Core in use  :  Haswell
   Copyright (c) 2011-2014, The OpenBLAS Project


  ***********************************
  * Starting time: Thu Oct  1 12:23:41 2026
  * Host name:     <anonimizado>
  * Process ID:    559017
  * Working dir.:  <anonimizado>
  ***********************************

NOTE: MaxCore=2500 MB was set to SCF,MP2,MDCI,CIPSI,MRCI,RASCI and CIS
      => If you want to overwrite this, your respective input block should be placed after the MaxCore statement
Your calculation utilizes the atom-pairwise dispersion correction
with the Becke-Johnson damping scheme (D3BJ)


Your calculation employs the composite approach B97-3c by Grimme and coworkers.
Please cite in your paper:
Brandenburg, J. G.; Bannwarth, C.; Hansen A.; Grimme, S. J. Chem. Phys. 2018, 148, 064104 
   

XCFun DFT library Copyright 2009-2010 Ulf Ekstrom and contributors.
See http://admol.org/xcfun for more information.
This is free software; see the source code for copying conditions.
There is ABSOLUTELY NO WARRANTY; not even for MERCHANTABILITY or FITNESS FOR A PARTICULAR PURPOSE.
For details see the documentation.
Scientific users of this library should cite U. Ekstrom, L. Visscher, R. Bast, A. J. Thorvaldsen and K. Ruud;
J.Chem.Theor.Comp. 2010, DOI: 10.1021/ct100117s
XCFun Version 0.99 

================================================================================

----- Orbital basis set information -----
Your calculation utilizes the basis: def2-mTZVP
----- AuxJ basis set information -----
Your calculation utilizes the auxiliary basis: def2-mTZVP/J
================================================================================
                                        WARNINGS
                       Please study these warnings very carefully!
================================================================================


WARNING: Geometry Optimization
  ===> : Switching off AutoStart
         For restart on a previous wavefunction, please use MOREAD

================================================================================
                                       INPUT FILE
================================================================================
NAME = dimero_PD.inp
|  1> ! B97-3c Opt Freq TightSCF
|  2> %pal nprocs 4 end
|  3> %maxcore 2500
|  4> * xyz 0 1
|  5> C     -0.80000000     1.39524800    -1.80000000
|  6> C      0.40832000     0.69762400    -1.80000000
|  7> C      0.40832000    -0.69762400    -1.80000000
|  8> C     -0.80000000    -1.39524800    -1.80000000
|  9> C     -2.00832000    -0.69762400    -1.80000000
| 10> C     -2.00832000     0.69762400    -1.80000000
| 11> H     -0.80000000     2.48236000    -1.80000000
| 12> H      1.34978700     1.24118000    -1.80000000
| 13> H      1.34978700    -1.24118000    -1.80000000
| 14> H     -0.80000000    -2.48236000    -1.80000000
| 15> H     -2.94978700    -1.24118000    -1.80000000
| 16> H     -2.94978700     1.24118000    -1.80000000
| 17> C      0.80000000     1.39524800     1.80000000
| 18> C      2.00832000     0.69762400     1.80000000
| 19> C      2.00832000    -0.69762400     1.80000000
| 20> C      0.80000000    -1.39524800     1.80000000
| 21> C     -0.40832000    -0.69762400     1.80000000
| 22> C     -0.40832000     0.69762400     1.80000000
| 23> H      0.80000000     2.48236000     1.80000000
| 24> H      2.94978700     1.24118000     1.80000000
| 25> H      2.94978700    -1.24118000     1.80000000
| 26> H      0.80000000    -2.48236000     1.80000000
| 27> H     -1.34978700    -1.24118000     1.80000000
| 28> H     -1.34978700     1.24118000     1.80000000
| 29> *
| 30> 
| 31>                          ****END OF INPUT****
================================================================================

                       *****************************
                       * Geometry Optimization Run *
                       *****************************

Geometry optimization settings:
Update method            Update   .... BFGS
Choice of coordinates    CoordSys .... (2022) Redundant Internals
Initial Hessian          InHess   .... Almloef's Model
Max. no of cycles        MaxIter  .... 72

Convergence Tolerances:
Energy Change            TolE     ....  5.0000e-06 Eh
Max. Gradient            TolMAXG  ....  3.0000e-04 Eh/bohr
RMS Gradient             TolRMSG  ....  1.0000e-04 Eh/bohr
Max. Displacement        TolMAXD  ....  4.0000e-03 bohr
RMS Displacement         TolRMSD  ....  2.0000e-03 bohr
Strict Convergence                .... False

------------------------------------------------------------------------------
                        ORCA OPTIMIZATION COORDINATE SETUP
------------------------------------------------------------------------------

The optimization will be done in redundant internal coordinates (2022)
Making redundant internal coordinates   ...  (2022 redundants) done
Evaluating the initial hessian          ...  (Almloef) done
Evaluating the coordinates              ...  done
Calculating the B-matrix                .... done
Calculating the G-matrix                .... done
The number of degrees of freedom        .... 1130

    -----------------------------------------------------------------
                    Redundant Internal Coordinates


    -----------------------------------------------------------------
         Definition                    Initial Value    Approx d2E/dq
    -----------------------------------------------------------------
      1. B(C   1,C   0)                  1.3952         0.612867   
      2. B(C   2,C   1)                  1.3952         0.612866   
      3. B(C   3,C   2)                  1.3952         0.612867   
      4. B(C   4,C   3)                  1.3952         0.612867   
      5. B(C   5,C   4)                  1.3952         0.612866   
      6. B(C   5,C   0)                  1.3952         0.612867   
      7. B(H   6,C   0)                  1.0871         0.363941   
      8. B(H   7,C   1)                  1.0871         0.363940   
      9. B(H   8,C   2)                  1.0871         0.363940   
     10. B(H   9,C   3)                  1.0871         0.363941   
     11. B(H  10,C   4)                  1.0871         0.363940   
     12. B(H  11,C   5)                  1.0871         0.363940   
     13. B(C  12,C   5)                  4.6188         0.010000   
     14. B(C  12,C   0)                  3.9395         0.010000   
     15. B(C  12,C   2)                  4.1825         0.010000   
     16. B(C  12,H   7)                  3.6450         0.010000   
     17. B(C  12,C   1)                  3.6878         0.010000   
     18. B(C  12,H   8)                  4.4959         0.010000   
     19. B(C  12,H   6)                  4.0868         0.010000   
     20. B(C  13,C  12)                  1.3952         0.612867   
     21. B(C  13,C   0)                  4.6188         0.010000   
     22. B(C  13,C   1)                  3.9395         0.010000   
     23. B(C  13,C   2)                  4.1793         0.010000   
     24. B(C  13,H   7)                  3.6999         0.010000   
     25. B(C  13,H   8)                  4.1416         0.010000   
     26. B(C  14,C  13)                  1.3952         0.612866   
     27. B(C  14,C   3)                  4.6188         0.010000   
     28. B(C  14,C   2)                  3.9395         0.010000   
     29. B(C  14,H   8)                  3.6999         0.010000   
     30. B(C  14,C   1)                  4.1793         0.010000   
     31. B(C  14,H   7)                  4.1416         0.010000   
     32. B(C  15,H   8)                  3.6450         0.010000   
     33. B(C  15,C   4)                  4.6188         0.010000   
     34. B(C  15,H   7)                  4.4959         0.010000   
     35. B(C  15,C   3)                  3.9395         0.010000   
     36. B(C  15,C   1)                  4.1825         0.010000   
     37. B(C  15,C  14)                  1.3952         0.612867   
     38. B(C  15,H   9)                  4.0868         0.010000   
     39. B(C  15,C   2)                  3.6878         0.010000   
     40. B(C  16,H   9)                  4.0372         0.010000   
     41. B(C  16,C   1)                  3.9463         0.010000   
     42. B(C  16,C   4)                  3.9395         0.010000   
     43. B(C  16,H   7)                  4.4508         0.010000   
     44. B(C  16,H  10)                  4.4401         0.010000   
     45. B(C  16,C   0)                  4.1825         0.010000   
     46. B(C  16,C   5)                  4.1793         0.010000   
     47. B(C  16,H   8)                  4.0431         0.010000   
     48. B(C  16,C   2)                  3.6915         0.010000   
     49. B(C  16,C   3)                  3.6878         0.010000   
     50. B(C  16,C  15)                  1.3952         0.612867   
     51. B(C  17,H   7)                  4.0431         0.010000   
     52. B(C  17,H   6)                  4.0372         0.010000   
     53. B(C  17,C   5)                  3.9395         0.010000   
     54. B(C  17,C   0)                  3.6878         0.010000   
     55. B(C  17,H  11)                  4.4401         0.010000   
     56. B(C  17,C   2)                  3.9463         0.010000   
     57. B(C  17,H   8)                  4.4508         0.010000   
     58. B(C  17,C   3)                  4.1825         0.010000   
     59. B(C  17,C   4)                  4.1793         0.010000   
     60. B(C  17,C  16)                  1.3952         0.612866   
     61. B(C  17,C  12)                  1.3952         0.612867   
     62. B(C  17,C   1)                  3.6915         0.010000   
     63. B(H  18,C   1)                  4.0372         0.010000   
     64. B(H  18,H   6)                  3.9395         0.010000   
     65. B(H  18,H   7)                  3.8474         0.010000   
     66. B(H  18,C  12)                  1.0871         0.363941   
     67. B(H  18,C   0)                  4.0868         0.010000   
     68. B(H  19,H   8)                  4.6564         0.010000   
     69. B(H  19,H   7)                  3.9395         0.010000   
     70. B(H  19,C   1)                  4.4401         0.010000   
     71. B(H  19,C  13)                  1.0871         0.363940   
     72. B(H  20,H   8)                  3.9395         0.010000   
     73. B(H  20,H   7)                  4.6564         0.010000   
     74. B(H  20,C  14)                  1.0871         0.363940   
     75. B(H  20,C   2)                  4.4401         0.010000   
     76. B(H  21,C   2)                  4.0372         0.010000   
     77. B(H  21,H   9)                  3.9395         0.010000   
     78. B(H  21,C  15)                  1.0871         0.363941   
     79. B(H  21,H   8)                  3.8474         0.010000   
     80. B(H  21,C   3)                  4.0868         0.010000   
     81. B(H  22,C   2)                  4.0431         0.010000   
     82. B(H  22,C   3)                  3.6450         0.010000   
     83. B(H  22,H  11)                  4.6564         0.010000   
     84. B(H  22,H   8)                  4.4997         0.010000   
     85. B(H  22,C  16)                  1.0871         0.363940   
     86. B(H  22,H  10)                  3.9395         0.010000   
     87. B(H  22,C   0)                  4.4959         0.010000   
     88. B(H  22,C   1)                  4.4508         0.010000   
     89. B(H  22,H   9)                  3.8474         0.010000   
     90. B(H  22,C   4)                  3.6999         0.010000   
     91. B(H  22,C   5)                  4.1416         0.010000   
     92. B(H  23,C   0)                  3.6450         0.010000   
     93. B(H  23,H  11)                  3.9395         0.010000   
     94. B(H  23,H  10)                  4.6564         0.010000   
     95. B(H  23,C  17)                  1.0871         0.363940   
     96. B(H  23,H   7)                  4.4997         0.010000   
     97. B(H  23,C   3)                  4.4959         0.010000   
     98. B(H  23,C   2)                  4.4508         0.010000   
     99. B(H  23,H   6)                  3.8474         0.010000   
    100. B(H  23,C   4)                  4.1416         0.010000   
    101. B(H  23,C   5)                  3.6999         0.010000   
    102. B(H  23,C   1)                  4.0431         0.010000   
    103. A(C   1,C   0,C   5)          120.0000         0.432263   
    104. A(H   6,C   0,C  13)           98.6872         0.107085   
    105. A(C   1,C   0,C  17)           79.2477         0.140022   
    106. A(C   5,C   0,C  17)           89.8507         0.140022   
    107. A(H   6,C   0,C  12)           90.0000         0.120812   
    108. A(C   5,C   0,C  16)           80.2650         0.122816   
    109. A(C  12,C   0,C  16)           34.4548         0.093077   
    110. A(C  12,C   0,C  13)           16.4261         0.091837   
    111. A(C   1,C   0,C  13)           52.9810         0.112528   
    112. A(C   1,C   0,H   6)          120.0000         0.352851   
    113. A(C   5,C   0,C  13)          116.8104         0.112528   
    114. A(C  16,C   0,C  17)           19.1211         0.094026   
    115. A(C  13,C   0,C  16)           36.5454         0.091318   
    116. A(C  13,C   0,C  17)           31.3496         0.092497   
    117. A(H   6,C   0,C  16)          120.0255         0.114993   
    118. A(C  12,C   0,C  17)           20.7422         0.095152   
    119. A(C   5,C   0,C  12)          110.5929         0.130387   
    120. A(C   1,C   0,C  16)           70.6527         0.122816   
    121. A(C   5,C   0,H   6)          120.0000         0.352851   
    122. A(C   1,C   0,C  12)           69.4071         0.130387   
    123. A(H   6,C   0,C  17)          100.9043         0.128219   
    124. A(C  13,C   1,C  14)           19.5024         0.093088   
    125. A(C   2,C   1,C  12)          100.9043         0.140022   
    126. A(C  14,C   1,C  16)           34.4524         0.093065   
    127. A(C   2,C   1,C  13)           90.0000         0.130387   
    128. A(C   0,C   1,C  16)           89.8605         0.130154   
    129. A(C   0,C   1,C  15)          109.3473         0.122816   
    130. A(C  13,C   1,C  16)           41.4470         0.093962   
    131. A(H   7,C   1,C  14)           80.5246         0.115062   
    132. A(H   7,C   1,C  15)           99.7350         0.114993   
    133. A(C   0,C   1,C  12)           89.8507         0.140022   
    134. A(C   2,C   1,C  17)           90.0000         0.139868   
    135. A(H   7,C   1,C  16)          110.8541         0.120633   
    136. A(C  16,C   1,C  17)           20.7049         0.095099   
    137. A(C   0,C   1,C  13)          110.5929         0.130387   
    138. A(C   0,C   1,C  14)          119.8988         0.122906   
    139. A(H   7,C   1,C  12)           79.2477         0.128219   
    140. A(H   7,C   1,C  13)           69.4071         0.120812   
    141. A(C   0,C   1,C   2)          120.0000         0.432263   
    142. A(C  12,C   1,C  13)           20.7422         0.095152   
    143. A(C   2,C   1,H   7)          120.0000         0.352851   
    144. A(C  15,C   1,C  16)           19.4867         0.093054   
    145. A(C   0,C   1,H   7)          120.0000         0.352851   
    146. A(C  13,C   1,C  15)           34.4548         0.093077   
    147. A(C   2,C   1,C  16)           69.2951         0.130154   
    148. A(C  15,C   1,C  17)           35.0470         0.094011   
    149. A(C   2,C   1,C  15)           59.9745         0.122816   
    150. A(H   7,C   1,C  17)          101.0453         0.128100   
    151. A(C  14,C   1,C  17)           40.9441         0.094025   
    152. A(C   0,C   1,C  17)           78.9547         0.139868   
    153. A(C  14,C   1,C  15)           19.2104         0.092340   
    154. A(C  12,C   1,C  15)           40.9298         0.094026   
    155. A(C   2,C   1,C  14)           70.4976         0.122906   
    156. A(C  12,C   1,C  17)           21.7977         0.096561   
    157. A(C  13,C   1,C  17)           36.7434         0.095133   
    158. A(C  12,C   1,C  16)           36.7120         0.095117   
    159. A(C  12,C   1,C  14)           35.0774         0.094040   
    160. A(C   1,C   2,H   8)          120.0000         0.352851   
    161. A(C  15,C   2,C  17)           36.7120         0.095117   
    162. A(C  15,C   2,C  16)           21.7977         0.096561   
    163. A(C   1,C   2,C  12)           59.9745         0.122816   
    164. A(C  14,C   2,C  16)           36.7434         0.095133   
    165. A(C   1,C   2,C  17)           69.2951         0.130154   
    166. A(C  12,C   2,C  13)           19.2104         0.092340   
    167. A(C   1,C   2,C  14)           90.0000         0.130387   
    168. A(C  12,C   2,C  17)           19.4867         0.093054   
    169. A(C   3,C   2,C  14)          110.5929         0.130387   
    170. A(C   3,C   2,C  16)           78.9547         0.139868   
    171. A(H   8,C   2,C  14)           69.4071         0.120812   
    172. A(H   8,C   2,C  16)          101.0453         0.128100   
    173. A(C  13,C   2,C  14)           19.5024         0.093088   
    174. A(C  12,C   2,C  16)           35.0470         0.094011   
    175. A(C  14,C   2,C  17)           41.4470         0.093962   
    176. A(H   8,C   2,C  15)           79.2477         0.128219   
    177. A(C   3,C   2,C  15)           89.8507         0.140022   
    178. A(C   3,C   2,C  13)          119.8988         0.122906   
    179. A(C   1,C   2,C  13)           70.4976         0.122906   
    180. A(C   3,C   2,H   8)          120.0000         0.352851   
    181. A(C  13,C   2,C  15)           35.0774         0.094040   
    182. A(H   8,C   2,C  17)          110.8541         0.120633   
    183. A(C  12,C   2,C  15)           40.9298         0.094026   
    184. A(C  12,C   2,C  14)           34.4548         0.093077   
    185. A(C   3,C   2,C  12)          109.3473         0.122816   
    186. A(C   1,C   2,C  16)           90.0000         0.139868   
    187. A(H   8,C   2,C  13)           80.5246         0.115062   
    188. A(C   1,C   2,C   3)          120.0000         0.432263   
    189. A(C   3,C   2,C  17)           89.8605         0.130154   
    190. A(C  13,C   2,C  17)           34.4524         0.093065   
    191. A(C  16,C   2,C  17)           20.7049         0.095099   
    192. A(H   8,C   2,C  12)           99.7350         0.114993   
    193. A(C  14,C   2,C  15)           20.7422         0.095152   
    194. A(C   1,C   2,C  15)          100.9043         0.140022   
    195. A(C  13,C   2,C  16)           40.9441         0.094025   
    196. A(C  14,C   3,C  15)           16.4261         0.091837   
    197. A(C   2,C   3,C  14)           52.9810         0.112528   
    198. A(C   4,C   3,C  16)           89.8507         0.140022   
    199. A(C   2,C   3,C  16)           79.2477         0.140022   
    200. A(H   9,C   3,C  16)          100.9043         0.128219   
    201. A(C  15,C   3,C  17)           34.4548         0.093077   
    202. A(C  16,C   3,C  17)           19.1211         0.094026   
    203. A(C   4,C   3,C  17)           80.2650         0.122816   
    204. A(C   2,C   3,C  17)           70.6527         0.122816   
    205. A(C   2,C   3,C   4)          120.0000         0.432263   
    206. A(C  15,C   3,C  16)           20.7422         0.095152   
    207. A(C  14,C   3,C  17)           36.5454         0.091318   
    208. A(C   2,C   3,H   9)          120.0000         0.352851   
    209. A(H   9,C   3,C  17)          120.0255         0.114993   
    210. A(H   9,C   3,C  15)           90.0000         0.120812   
    211. A(C   4,C   3,C  15)          110.5929         0.130387   
    212. A(C   2,C   3,C  15)           69.4071         0.130387   
    213. A(H   9,C   3,C  14)           98.6872         0.107085   
    214. A(C   4,C   3,H   9)          120.0000         0.352851   
    215. A(C   4,C   3,C  14)          116.8104         0.112528   
    216. A(C  14,C   3,C  16)           31.3496         0.092497   
    217. A(C   3,C   4,H  10)          120.0000         0.352851   
    218. A(C   3,C   4,C  16)           69.4071         0.130387   
    219. A(C   5,C   4,C  17)           70.4976         0.122906   
    220. A(C   5,C   4,H  10)          120.0000         0.352851   
    221. A(H  10,C   4,C  17)          119.8988         0.115062   
    222. A(C   3,C   4,C  17)           80.5246         0.122906   
    223. A(C   3,C   4,C   5)          120.0000         0.432263   
    224. A(H  10,C   4,C  16)          110.5929         0.120812   
    225. A(H  10,C   4,C  15)          116.8104         0.107085   
    226. A(C  15,C   4,C  16)           16.4261         0.091837   
    227. A(C   5,C   4,C  15)           98.6872         0.112528   
    228. A(C   3,C   4,C  15)           52.9810         0.112528   
    229. A(C  16,C   4,C  17)           19.5024         0.093088   
    230. A(C   5,C   4,C  16)           90.0000         0.130387   
    231. A(C  15,C   4,C  17)           31.3802         0.091324   
    232. A(C  12,C   5,C  16)           31.3802         0.091324   
    233. A(C   0,C   5,C   4)          120.0000         0.432263   
    234. A(H  11,C   5,C  17)          110.5929         0.120812   
    235. A(C   4,C   5,C  17)           90.0000         0.130387   
    236. A(C   0,C   5,C  17)           69.4071         0.130387   
    237. A(C  16,C   5,C  17)           19.5024         0.093088   
    238. A(H  11,C   5,C  16)          119.8988         0.115062   
    239. A(C   4,C   5,C  16)           70.4976         0.122906   
    240. A(C   0,C   5,C  16)           80.5246         0.122906   
    241. A(C   4,C   5,H  11)          120.0000         0.352851   
    242. A(C   0,C   5,H  11)          120.0000         0.352851   
    243. A(C  12,C   5,C  17)           16.4261         0.091837   
    244. A(H  11,C   5,C  12)          116.8104         0.107085   
    245. A(C   4,C   5,C  12)           98.6872         0.112528   
    246. A(C   0,C   5,C  12)           52.9810         0.112528   
    247. A(C   1,C  12,C   2)           19.1211         0.094026   
    248. A(C   2,C  12,H  18)          120.0255         0.114993   
    249. A(C   2,C  12,C  17)           70.6527         0.122816   
    250. A(C   2,C  12,C  13)           80.2650         0.122816   
    251. A(C   1,C  12,H  18)          100.9043         0.128219   
    252. A(C   1,C  12,C  17)           79.2477         0.140022   
    253. A(C  17,C  12,H  18)          120.0000         0.352851   
    254. A(C   1,C  12,C  13)           89.8507         0.140022   
    255. A(C  13,C  12,H  18)          120.0000         0.352851   
    256. A(C   0,C  12,C   5)           16.4261         0.091837   
    257. A(C   0,C  12,C   1)           20.7422         0.095152   
    258. A(C   0,C  12,H  18)           90.0000         0.120812   
    259. A(C   0,C  12,C  17)           69.4071         0.130387   
    260. A(C   0,C  12,C  13)          110.5929         0.130387   
    261. A(C  13,C  12,C  17)          120.0000         0.432263   
    262. A(C   0,C  12,C   2)           34.4548         0.093077   
    263. A(C   2,C  12,C   5)           36.5454         0.091318   
    264. A(C   1,C  12,C   5)           31.3496         0.092497   
    265. A(C   5,C  12,H  18)           98.6872         0.107085   
    266. A(C   5,C  12,C  17)           52.9810         0.112528   
    267. A(C   5,C  12,C  13)          116.8104         0.112528   
    268. A(C   1,C  13,H  19)          110.5929         0.120812   
    269. A(C   1,C  13,C  14)           90.0000         0.130387   
    270. A(C   1,C  13,C  12)           69.4071         0.130387   
    271. A(C  14,C  13,H  19)          120.0000         0.352851   
    272. A(C  12,C  13,H  19)          120.0000         0.352851   
    273. A(C   0,C  13,C  14)           98.6872         0.112528   
    274. A(C   1,C  13,C   2)           19.5024         0.093088   
    275. A(C   2,C  13,H  19)          119.8988         0.115062   
    276. A(C   2,C  13,C  14)           70.4976         0.122906   
    277. A(C   2,C  13,C  12)           80.5246         0.122906   
    278. A(C  12,C  13,C  14)          120.0000         0.432263   
    279. A(C   0,C  13,C   2)           31.3802         0.091324   
    280. A(C   0,C  13,C   1)           16.4261         0.091837   
    281. A(C   0,C  13,H  19)          116.8104         0.107085   
    282. A(C   0,C  13,C  12)           52.9810         0.112528   
    283. A(C   1,C  14,C   3)           31.3802         0.091324   
    284. A(C   2,C  14,C   3)           16.4261         0.091837   
    285. A(C   3,C  14,H  20)          116.8104         0.107085   
    286. A(C   3,C  14,C  13)           98.6872         0.112528   
    287. A(C  15,C  14,H  20)          120.0000         0.352851   
    288. A(C  13,C  14,H  20)          120.0000         0.352851   
    289. A(C   2,C  14,H  20)          110.5929         0.120812   
    290. A(C   2,C  14,C  15)           69.4071         0.130387   
    291. A(C   2,C  14,C  13)           90.0000         0.130387   
    292. A(C   1,C  14,C   2)           19.5024         0.093088   
    293. A(C   1,C  14,H  20)          119.8988         0.115062   
    294. A(C   1,C  14,C  15)           80.5246         0.122906   
    295. A(C   1,C  14,C  13)           70.4976         0.122906   
    296. A(C  13,C  14,C  15)          120.0000         0.432263   
    297. A(C   3,C  14,C  15)           52.9810         0.112528   
    298. A(C  14,C  15,H  21)          120.0000         0.352851   
    299. A(C   1,C  15,C   3)           34.4548         0.093077   
    300. A(C   1,C  15,C   2)           19.1211         0.094026   
    301. A(C   1,C  15,H  21)          120.0255         0.114993   
    302. A(C   1,C  15,C  16)           70.6527         0.122816   
    303. A(C   1,C  15,C  14)           80.2650         0.122816   
    304. A(C   2,C  15,H  21)          100.9043         0.128219   
    305. A(C   2,C  15,C  16)           79.2477         0.140022   
    306. A(C   2,C  15,C  14)           89.8507         0.140022   
    307. A(C  14,C  15,C  16)          120.0000         0.432263   
    308. A(C   2,C  15,C   3)           20.7422         0.095152   
    309. A(C   3,C  15,H  21)           90.0000         0.120812   
    310. A(C   3,C  15,C  16)           69.4071         0.130387   
    311. A(C   3,C  15,C  14)          110.5929         0.130387   
    312. A(C   1,C  15,C   4)           36.5454         0.091318   
    313. A(C   2,C  15,C   4)           31.3496         0.092497   
    314. A(C   4,C  15,C  16)           52.9810         0.112528   
    315. A(C   4,C  15,C  14)          116.8104         0.112528   
    316. A(C   3,C  15,C   4)           16.4261         0.091837   
    317. A(C   4,C  15,H  21)           98.6872         0.107085   
    318. A(C  16,C  15,H  21)          120.0000         0.352851   
    319. A(C   2,C  16,C   4)           36.7434         0.095133   
    320. A(C   3,C  16,C   4)           20.7422         0.095152   
    321. A(C   4,C  16,H  22)           69.4071         0.120812   
    322. A(C   4,C  16,C  17)           90.0000         0.130387   
    323. A(C   4,C  16,C  15)          110.5929         0.130387   
    324. A(C   3,C  16,H  22)           79.2477         0.128219   
    325. A(C   3,C  16,C  17)          100.9043         0.140022   
    326. A(C   3,C  16,C  15)           89.8507         0.140022   
    327. A(C   0,C  16,C   5)           19.2104         0.092340   
    328. A(C   0,C  16,C   1)           19.4867         0.093054   
    329. A(C   0,C  16,C   4)           34.4548         0.093077   
    330. A(C   0,C  16,C   2)           35.0470         0.094011   
    331. A(C   0,C  16,C   3)           40.9298         0.094026   
    332. A(C   0,C  16,H  22)           99.7350         0.114993   
    333. A(C   0,C  16,C  17)           59.9745         0.122816   
    334. A(C   0,C  16,C  15)          109.3473         0.122816   
    335. A(C  15,C  16,C  17)          120.0000         0.432263   
    336. A(C   1,C  16,C   5)           34.4524         0.093065   
    337. A(C   4,C  16,C   5)           19.5024         0.093088   
    338. A(C   2,C  16,C   5)           40.9441         0.094025   
    339. A(C   3,C  16,C   5)           35.0774         0.094040   
    340. A(C   5,C  16,H  22)           80.5246         0.115062   
    341. A(C   5,C  16,C  17)           70.4976         0.122906   
    342. A(C   5,C  16,C  15)          119.8988         0.122906   
    343. A(C   2,C  16,C   3)           21.7977         0.096561   
    344. A(C   1,C  16,C   4)           41.4470         0.093962   
    345. A(C   2,C  16,H  22)          101.0453         0.128100   
    346. A(C   1,C  16,C   2)           20.7049         0.095099   
    347. A(C   2,C  16,C  17)           90.0000         0.139868   
    348. A(C   1,C  16,C   3)           36.7120         0.095117   
    349. A(C   2,C  16,C  15)           78.9547         0.139868   
    350. A(C   1,C  16,H  22)          110.8541         0.120633   
    351. A(C   1,C  16,C  17)           69.2951         0.130154   
    352. A(C   1,C  16,C  15)           89.8605         0.130154   
    353. A(C  17,C  16,H  22)          120.0000         0.352851   
    354. A(C  15,C  16,H  22)          120.0000         0.352851   
    355. A(C   3,C  17,C   4)           19.2104         0.092340   
    356. A(C   2,C  17,C   3)           19.4867         0.093054   
    357. A(C   3,C  17,C   5)           34.4548         0.093077   
    358. A(C   1,C  17,C   3)           35.0470         0.094011   
    359. A(C   1,C  17,C   5)           36.7434         0.095133   
    360. A(C   0,C  17,C   3)           40.9298         0.094026   
    361. A(C   3,C  17,H  23)           99.7350         0.114993   
    362. A(C   0,C  17,C   5)           20.7422         0.095152   
    363. A(C   3,C  17,C  16)           59.9745         0.122816   
    364. A(C   3,C  17,C  12)          109.3473         0.122816   
    365. A(C   5,C  17,H  23)           69.4071         0.120812   
    366. A(C   5,C  17,C  16)           90.0000         0.130387   
    367. A(C   2,C  17,C   4)           34.4524         0.093065   
    368. A(C   5,C  17,C  12)          110.5929         0.130387   
    369. A(C  12,C  17,C  16)          120.0000         0.432263   
    370. A(C   4,C  17,C   5)           19.5024         0.093088   
    371. A(C   1,C  17,C   4)           40.9441         0.094025   
    372. A(C   0,C  17,C   4)           35.0774         0.094040   
    373. A(C   4,C  17,H  23)           80.5246         0.115062   
    374. A(C   4,C  17,C  16)           70.4976         0.122906   
    375. A(C   4,C  17,C  12)          119.8988         0.122906   
    376. A(C   0,C  17,H  23)           79.2477         0.128219   
    377. A(C   0,C  17,C  16)          100.9043         0.140022   
    378. A(C   0,C  17,C  12)           89.8507         0.140022   
    379. A(C  16,C  17,H  23)          120.0000         0.352851   
    380. A(C  12,C  17,H  23)          120.0000         0.352851   
    381. A(C   2,C  17,C   5)           41.4470         0.093962   
    382. A(C   0,C  17,C   1)           21.7977         0.096561   
    383. A(C   1,C  17,C   2)           20.7049         0.095099   
    384. A(C   1,C  17,H  23)          101.0453         0.128100   
    385. A(C   0,C  17,C   2)           36.7120         0.095117   
    386. A(C   2,C  17,H  23)          110.8541         0.120633   
    387. A(C   1,C  17,C  16)           90.0000         0.139868   
    388. A(C   2,C  17,C  16)           69.2951         0.130154   
    389. A(C   2,C  17,C  12)           89.8605         0.130154   
    390. A(C   1,C  17,C  12)           78.9547         0.139868   
    391. D(C   2,C   1,C   0,C  12)    102.5288         0.054103   
    392. D(C  12,C   1,C   0,C   5)   -102.5288         0.054103   
    393. D(C  12,C   1,C   0,C  17)    -18.9998         0.054103   
    394. D(H   7,C   1,C   0,C  12)    -77.4712         0.054103   
    395. D(C   2,C   1,C   0,C   5)      0.0000         0.054103   
    396. D(C  12,C   1,C   0,C  13)      0.0000         0.054103   
    397. D(C  17,C   1,C   0,H   6)     96.4710         0.054103   
    398. D(H   7,C   1,C   0,C  16)   -114.1833         0.054103   
    399. D(H   7,C   1,C   0,C  17)    -96.4710         0.054103   
    400. D(H   7,C   1,C   0,H   6)      0.0000         0.054103   
    401. D(C  12,C   1,C   0,C  16)    -36.7121         0.054103   
    402. D(C   2,C   1,C   0,C  16)     65.8167         0.054103   
    403. D(H   7,C   1,C   0,C  13)    -77.4712         0.054103   
    404. D(C  17,C   1,C   0,C  12)     18.9998         0.054103   
    405. D(C  17,C   1,C   0,C   5)    -83.5290         0.054103   
    406. D(H   7,C   1,C   0,C   5)    180.0000         0.054103   
    407. D(C  12,C   1,C   0,H   6)     77.4712         0.054103   
    408. D(C   2,C   1,C   0,C  17)     83.5290         0.054103   
    409. D(C   2,C   1,C   0,C  13)    102.5288         0.054103   
    410. D(C   2,C   1,C   0,H   6)    180.0000         0.054103   
    411. D(C  17,C   1,C   0,C  16)    -17.7123         0.054103   
    412. D(C   3,C   2,C   1,C  13)    113.9625         0.057910   
    413. D(C  15,C   2,C   1,C  13)     17.7531         0.057910   
    414. D(C  15,C   2,C   1,C  16)    -18.9903         0.057910   
    415. D(H   8,C   2,C   1,C  12)    -83.7906         0.057910   
    416. D(C  15,C   2,C   1,C  12)      0.0000         0.057910   
    417. D(H   8,C   2,C   1,C   0)    180.0000         0.057910   
    418. D(H   8,C   2,C   1,C  16)   -102.7809         0.057910   
    419. D(H   8,C   2,C   1,H   7)      0.0000         0.057910   
    420. D(C   3,C   2,C   1,C   0)      0.0000         0.057910   
    421. D(H   8,C   2,C   1,C  15)    -83.7906         0.057910   
    422. D(H   8,C   2,C   1,C  17)   -102.7809         0.057910   
    423. D(C   3,C   2,C   1,H   7)    180.0000         0.057910   
    424. D(H   8,C   2,C   1,C  14)    -66.0375         0.057910   
    425. D(C   3,C   2,C   1,C  14)    113.9625         0.057910   
    426. D(C  16,C   2,C   1,C   0)    -77.2191         0.057910   
    427. D(C   3,C   2,C   1,C  16)     77.2191         0.057910   
    428. D(C  15,C   2,C   1,C   0)    -96.2094         0.057910   
    429. D(C   3,C   2,C   1,C  15)     96.2094         0.057910   
    430. D(C   3,C   2,C   1,C  17)     77.2191         0.057910   
    431. D(C  15,C   2,C   1,C  14)     17.7531         0.057910   
    432. D(C  15,C   2,C   1,C  17)    -18.9903         0.057910   
    433. D(H   8,C   2,C   1,C  13)    -66.0375         0.057910   
    434. D(C   3,C   2,C   1,C  12)     96.2094         0.057910   
    435. D(C  15,C   2,C   1,H   7)     83.7906         0.057910   
    436. D(C   4,C   3,C   2,C  17)     65.8167         0.054103   
    437. D(H   9,C   3,C   2,C  16)    -96.4710         0.054103   
    438. D(H   9,C   3,C   2,C  13)    -96.4710         0.054103   
    439. D(C  16,C   3,C   2,H   8)     96.4710         0.054103   
    440. D(H   9,C   3,C   2,C  14)    -77.4712         0.054103   
    441. D(H   9,C   3,C   2,C  17)   -114.1833         0.054103   
    442. D(C   4,C   3,C   2,H   8)    180.0000         0.054103   
    443. D(H   9,C   3,C   2,H   8)      0.0000         0.054103   
    444. D(C   4,C   3,C   2,C  13)     83.5290         0.054103   
    445. D(C   4,C   3,C   2,C   1)      0.0000         0.054103   
    446. D(C   4,C   3,C   2,C  12)     65.8167         0.054103   
    447. D(C  16,C   3,C   2,C   1)    -83.5290         0.054103   
    448. D(C   4,C   3,C   2,C  14)    102.5288         0.054103   
    449. D(C   4,C   3,C   2,C  16)     83.5290         0.054103   
    450. D(H   9,C   3,C   2,C   1)    180.0000         0.054103   
    451. D(H   9,C   3,C   2,C  12)   -114.1833         0.054103   
    452. D(C   4,C   3,C   2,C  15)    102.5288         0.054103   
    453. D(C  16,C   3,C   2,C  17)    -17.7123         0.054103   
    454. D(H   9,C   3,C   2,C  15)    -77.4712         0.054103   
    455. D(C  16,C   3,C   2,C  15)     18.9998         0.054103   
    456. D(C  16,C   3,C   2,C  14)     18.9998         0.054103   
    457. D(H  10,C   4,C   3,C  15)   -102.5288         0.047243   
    458. D(H  10,C   4,C   3,C  17)   -119.1557         0.047243   
    459. D(H  10,C   4,C   3,C  14)   -119.1557         0.047243   
    460. D(C  16,C   4,C   3,H   9)    102.5288         0.047243   
    461. D(H  10,C   4,C   3,H   9)      0.0000         0.047243   
    462. D(H  10,C   4,C   3,C  16)   -102.5288         0.047243   
    463. D(C   5,C   4,C   3,C   2)      0.0000         0.047243   
    464. D(C   5,C   4,C   3,C  15)     77.4712         0.047243   
    465. D(C   5,C   4,C   3,C  16)     77.4712         0.047243   
    466. D(C   5,C   4,C   3,C  17)     60.8443         0.047243   
    467. D(C  16,C   4,C   3,C  17)    -16.6269         0.047243   
    468. D(C   5,C   4,C   3,H   9)    180.0000         0.047243   
    469. D(C  16,C   4,C   3,C   2)    -77.4712         0.047243   
    470. D(C   5,C   4,C   3,C  14)     60.8443         0.047243   
    471. D(C  16,C   4,C   3,C  15)      0.0000         0.047243   
    472. D(H  10,C   4,C   3,C   2)    180.0000         0.047243   
    473. D(H  11,C   5,C   4,C  15)   -127.9574         0.044273   
    474. D(C  17,C   5,C   4,C  16)      0.0000         0.044273   
    475. D(H  11,C   5,C   0,C  17)    102.5288         0.047243   
    476. D(C  17,C   5,C   4,H  10)    113.9625         0.044273   
    477. D(C  17,C   5,C   4,C  15)    -13.9949         0.044273   
    478. D(H  11,C   5,C   4,H  10)      0.0000         0.044273   
    479. D(C   4,C   5,C   0,C   1)      0.0000         0.047243   
    480. D(C  17,C   5,C   0,H   6)   -102.5288         0.047243   
    481. D(C   4,C   5,C   0,C  13)    -60.8443         0.047243   
    482. D(C   4,C   5,C   0,C  16)    -60.8443         0.047243   
    483. D(H  11,C   5,C   0,C  16)    119.1557         0.047243   
    484. D(C  17,C   5,C   0,C  16)     16.6269         0.047243   
    485. D(H  11,C   5,C   0,C  12)    102.5288         0.047243   
    486. D(C  17,C   5,C   4,C   3)    -66.0375         0.044273   
    487. D(C   0,C   5,C   4,H  10)    180.0000         0.044273   
    488. D(C   0,C   5,C   4,C  15)     52.0426         0.044273   
    489. D(C   0,C   5,C   4,C  17)     66.0375         0.044273   
    490. D(H  11,C   5,C   4,C   3)    180.0000         0.044273   
    491. D(H  11,C   5,C   4,C  17)   -113.9625         0.044273   
    492. D(C   0,C   5,C   4,C   3)      0.0000         0.044273   
    493. D(C  17,C   5,C   0,C   1)     77.4712         0.047243   
    494. D(C  17,C   5,C   0,C  12)      0.0000         0.047243   
    495. D(C   4,C   5,C   0,C  12)    -77.4712         0.047243   
    496. D(H  11,C   5,C   0,C   1)    180.0000         0.047243   
    497. D(H  11,C   5,C   0,C  13)    119.1557         0.047243   
    498. D(C   0,C   5,C   4,C  16)     66.0375         0.044273   
    499. D(C   4,C   5,C   0,H   6)    180.0000         0.047243   
    500. D(H  11,C   5,C   4,C  16)   -113.9625         0.044273   
    501. D(H  11,C   5,C   0,H   6)      0.0000         0.047243   
    502. D(C   4,C   5,C   0,C  17)    -77.4712         0.047243   
    503. D(H  18,C  12,C   0,C  17)   -122.2849         0.010000   
    504. D(C  17,C  12,C   0,C  13)   -115.4302         0.010000   
    505. D(H  18,C  12,C   0,C   5)   -122.2849         0.010000   
    506. D(C  13,C  12,C   0,C   1)     -0.0000         0.010000   
    507. D(C  13,C  12,C   0,C   5)    115.4302         0.010000   
    508. D(C  17,C  12,C   0,C   1)   -115.4302         0.010000   
    509. D(C  13,C  12,C   0,C  17)    115.4302         0.010000   
    510. D(H  18,C  12,C   0,C   1)    122.2849         0.010000   
    511. D(C  17,C  12,C   0,H   6)    122.2849         0.010000   
    512. D(C  13,C  12,C   0,H   6)   -122.2849         0.010000   
    513. D(H  18,C  12,C   0,H   6)      0.0000         0.010000   
    514. D(C  13,C  12,C   0,C  16)     85.5308         0.010000   
    515. D(C  17,C  12,C   0,C  16)    -29.8995         0.010000   
    516. D(H  18,C  12,C   2,C  14)    147.3875         0.010000   
    517. D(C  13,C  12,C   2,C  15)     60.8707         0.010000   
    518. D(C  17,C  12,C   0,C   5)     -0.0000         0.010000   
    519. D(C  17,C  12,C   5,H  11)     71.3028         0.010000   
    520. D(C  13,C  12,C   5,C   4)     49.9138         0.010000   
    521. D(C   1,C  12,C   5,C   4)     83.2801         0.010000   
    522. D(H  18,C  12,C   5,C  16)   -154.0374         0.010000   
    523. D(C  17,C  12,C   1,C  14)    -91.2122         0.010000   
    524. D(H  18,C  12,C   1,C   0)    -59.4231         0.010000   
    525. D(H  18,C  12,C   5,C   4)    180.0000         0.010000   
    526. D(C   1,C  12,C   5,C   0)    -37.9365         0.010000   
    527. D(C  17,C  12,C   5,C   4)    -58.7834         0.010000   
    528. D(H  18,C  12,C   1,C  13)    120.5769         0.010000   
    529. D(H  18,C  12,C   1,C  16)   -149.3900         0.010000   
    530. D(C  17,C  12,C   5,C   0)    180.0000         0.010000   
    531. D(C  13,C  12,C   5,C  17)    108.6972         0.010000   
    532. D(C  17,C  12,C   2,C  16)    -31.3314         0.010000   
    533. D(H  18,C  12,C   1,C  14)    149.9906         0.010000   
    534. D(C  13,C  12,C   2,C   3)    126.7202         0.010000   
    535. D(C  13,C  12,C   5,C   0)    -71.3028         0.010000   
    536. D(H  18,C  12,C   2,C  17)   -114.1505         0.010000   
    537. D(H  18,C  12,C   2,C  16)   -145.4819         0.010000   
    538. D(H  18,C  12,C   2,C  15)    180.0000         0.010000   
    539. D(H  18,C  12,C   2,C   3)   -114.1505         0.010000   
    540. D(C  17,C  12,C   2,C   1)    114.1505         0.010000   
    541. D(H  18,C  12,C   2,H   8)    119.1293         0.010000   
    542. D(C  13,C  12,C   1,C  16)     90.0332         0.010000   
    543. D(C  17,C  12,C   2,C  15)    -65.8495         0.010000   
    544. D(C  13,C  12,C   1,C  14)     29.4138         0.010000   
    545. D(C  17,C  12,C   2,C   3)      0.0000         0.010000   
    546. D(C  17,C  12,C   1,C   0)     59.3740         0.010000   
    547. D(C  13,C  12,C   5,C  16)     75.8764         0.010000   
    548. D(C  13,C  12,C   2,C   1)   -119.1293         0.010000   
    549. D(H  18,C  12,C   1,C   2)    180.0000         0.010000   
    550. D(C  17,C  12,C   2,C  14)    -98.4620         0.010000   
    551. D(C  17,C  12,C   1,C  15)    -61.2028         0.010000   
    552. D(H  18,C  12,C   5,C  17)   -121.2166         0.010000   
    553. D(C  17,C  12,C   1,C  16)    -30.5928         0.010000   
    554. D(C  17,C  12,C   2,C  13)   -126.7202         0.010000   
    555. D(H  18,C  12,C   2,C   1)      0.0000         0.010000   
    556. D(C  13,C  12,C   2,C  17)    126.7202         0.010000   
    557. D(C   1,C  12,C   0,H   6)   -122.2849         0.010000   
    558. D(C  13,C  12,C   1,C   0)    180.0000         0.010000   
    559. D(C  13,C  12,C   2,H   8)     -0.0000         0.010000   
    560. D(C  13,C  12,C   1,H   7)    -59.3740         0.010000   
    561. D(C  13,C  12,C   1,C  15)     59.4231         0.010000   
    562. D(C  17,C  12,C   1,H   7)   -180.0000         0.010000   
    563. D(H  18,C  12,C   0,C  16)   -152.1844         0.010000   
    564. D(C  13,C  12,C   5,H  11)    180.0000         0.010000   
    565. D(C  13,C  12,C   2,C  14)     28.2582         0.010000   
    566. D(C  13,C  12,C   1,C  17)    120.6260         0.010000   
    567. D(C  13,C  12,C   2,C  16)     95.3888         0.010000   
    568. D(H  18,C  12,C   1,C  17)   -118.7972         0.010000   
    569. D(H  18,C  12,C   1,H   7)     61.2029         0.010000   
    570. D(C  17,C  12,C   5,C  16)    -32.8208         0.010000   
    571. D(H  18,C  12,C   5,H  11)    -49.9138         0.010000   
    572. D(H  18,C  12,C   5,C   0)     58.7834         0.010000   
    573. D(C  13,C  12,C   1,C   2)     59.4231         0.010000   
    574. D(C  17,C  12,C   1,C   2)    -61.2028         0.010000   
    575. D(C  17,C  12,C   2,H   8)   -126.7202         0.010000   
    576. D(C  17,C  12,C   1,C  13)   -120.6260         0.010000   
    577. D(C   1,C  12,C   0,C   5)    115.4302         0.010000   
    578. D(H  18,C  12,C   0,C  13)    122.2849         0.010000   
    579. D(C   1,C  13,C  12,C  17)     77.4712         0.047243   
    580. D(H  19,C  13,C  12,C   0)    102.5288         0.047243   
    581. D(C  14,C  13,C   1,H   7)   -122.2849         0.010000   
    582. D(C  14,C  13,C  12,C   5)    -60.8443         0.047243   
    583. D(H  19,C  13,C   1,C   0)   -115.4302         0.010000   
    584. D(C  14,C  13,C  12,H  18)    180.0000         0.047243   
    585. D(H  19,C  13,C   1,C  17)   -147.7151         0.010000   
    586. D(H  19,C  13,C   2,C  15)    145.4928         0.010000   
    587. D(H  19,C  13,C   2,H   8)     60.7400         0.010000   
    588. D(C  14,C  13,C   2,C  17)     98.4397         0.010000   
    589. D(C  12,C  13,C   2,C  15)    -95.2472         0.010000   
    590. D(C  14,C  13,C   2,C  16)     65.9067         0.010000   
    591. D(C  14,C  13,C   2,C   3)     65.9067         0.010000   
    592. D(C  12,C  13,C   2,C  17)    -28.2070         0.010000   
    593. D(C  14,C  13,C   2,C  15)     31.3995         0.010000   
    594. D(C  14,C  13,C   2,H   8)    -53.3533         0.010000   
    595. D(C  14,C  13,C   2,C  12)    126.6468         0.010000   
    596. D(C  12,C  13,C   2,H   8)    180.0000         0.010000   
    597. D(C  12,C  13,C   2,C   3)    -60.7400         0.010000   
    598. D(C  12,C  13,C   2,C   1)     53.3532         0.010000   
    599. D(C  14,C  13,C  12,C  17)      0.0000         0.047243   
    600. D(H  19,C  13,C   1,H   7)     -0.0000         0.010000   
    601. D(H  19,C  13,C   1,C   2)    122.2849         0.010000   
    602. D(C  14,C  13,C   1,C  15)     27.8156         0.010000   
    603. D(C  14,C  13,C   1,C  16)     57.7151         0.010000   
    604. D(C  14,C  13,C   1,C  17)     90.0000         0.010000   
    605. D(H  19,C  13,C  12,C  17)    180.0000         0.047243   
    606. D(C  14,C  13,C  12,C   0)    -77.4712         0.047243   
    607. D(C  14,C  13,C   1,C  12)    122.2849         0.010000   
    608. D(C  14,C  13,C  12,C   2)    -60.8443         0.047243   
    609. D(H  19,C  13,C  12,C   2)    119.1557         0.047243   
    610. D(C  14,C  13,C  12,C   1)    -77.4712         0.047243   
    611. D(H  19,C  13,C   1,C  12)   -115.4302         0.010000   
    612. D(H  19,C  13,C   2,C  16)    180.0000         0.010000   
    613. D(H  19,C  13,C  12,C   1)    102.5288         0.047243   
    614. D(C  14,C  13,C   1,C   2)      0.0000         0.010000   
    615. D(C  14,C  13,C   1,C   0)    122.2849         0.010000   
    616. D(H  19,C  13,C  12,C   5)    119.1557         0.047243   
    617. D(C  12,C  13,C   2,C  16)    -60.7400         0.010000   
    618. D(C  12,C  13,C   2,C  14)   -126.6468         0.010000   
    619. D(C  12,C  13,C   1,C  15)    -94.4692         0.010000   
    620. D(C  14,C  13,C   2,C   1)    180.0000         0.010000   
    621. D(C  12,C  13,C   1,C  14)   -122.2849         0.010000   
    622. D(H  19,C  13,C  12,H  18)      0.0000         0.047243   
    623. D(C  12,C  13,C   1,C  17)    -32.2849         0.010000   
    624. D(H  19,C  13,C   0,C  12)   -108.6972         0.010000   
    625. D(H  19,C  13,C   0,C   1)     71.3028         0.010000   
    626. D(H  19,C  13,C   2,C   1)    -65.9067         0.010000   
    627. D(C  14,C  13,C   0,H   6)    180.0000         0.010000   
    628. D(C  14,C  13,C   0,C   1)    -58.7834         0.010000   
    629. D(C  12,C  13,C   0,C  16)    -71.3028         0.010000   
    630. D(C  12,C  13,C   0,C  17)    -37.9365         0.010000   
    631. D(H  19,C  13,C   2,C   3)    180.0000         0.010000   
    632. D(C  12,C  13,C   0,H   6)     58.7834         0.010000   
    633. D(C  12,C  13,C   0,C   5)    -71.3028         0.010000   
    634. D(C  12,C  13,C   0,C   1)    180.0000         0.010000   
    635. D(C  14,C  13,C   0,C  17)     83.2801         0.010000   
    636. D(C  14,C  13,C   0,C   5)     49.9138         0.010000   
    637. D(H  19,C  13,C   0,H   6)    -49.9138         0.010000   
    638. D(C  14,C  13,C   0,C  16)     49.9138         0.010000   
    639. D(C  12,C  13,C   1,C  16)    -64.5698         0.010000   
    640. D(H  19,C  13,C   0,C  17)   -146.6337         0.010000   
    641. D(C  12,C  13,C   1,C   0)     -0.0000         0.010000   
    642. D(C  12,C  13,C   1,C   2)   -122.2849         0.010000   
    643. D(C  12,C  13,C   1,H   7)    115.4302         0.010000   
    644. D(C  14,C  13,C   0,C  12)    121.2166         0.010000   
    645. D(C   1,C  13,C  12,C   2)     16.6269         0.047243   
    646. D(C   1,C  13,C  12,C   0)      0.0000         0.047243   
    647. D(C   1,C  13,C  12,H  18)   -102.5288         0.047243   
    648. D(H  19,C  13,C   0,C   5)    180.0000         0.010000   
    649. D(H  20,C  14,C   2,C  15)    115.4302         0.010000   
    650. D(C  13,C  14,C   3,C   4)    -49.9138         0.010000   
    651. D(C  15,C  14,C   3,C  17)     71.3028         0.010000   
    652. D(H  20,C  14,C   3,C  16)    146.6337         0.010000   
    653. D(C  15,C  14,C  13,C   0)    -52.0426         0.044273   
    654. D(C   2,C  14,C  13,C  12)     66.0375         0.044273   
    655. D(C   2,C  14,C  13,H  19)   -113.9625         0.044273   
    656. D(C   2,C  14,C  13,C   0)     13.9949         0.044273   
    657. D(H  20,C  14,C  13,C   0)    127.9574         0.044273   
    658. D(C   2,C  14,C  13,C   1)      0.0000         0.044273   
    659. D(H  20,C  14,C  13,C   2)    113.9625         0.044273   
    660. D(H  20,C  14,C  13,C   1)    113.9625         0.044273   
    661. D(H  20,C  14,C  13,C  12)    180.0000         0.044273   
    662. D(C  15,C  14,C  13,C   2)    -66.0375         0.044273   
    663. D(C  15,C  14,C  13,H  19)    180.0000         0.044273   
    664. D(C  15,C  14,C  13,C  12)      0.0000         0.044273   
    665. D(H  20,C  14,C   3,C  15)    108.6972         0.010000   
    666. D(H  20,C  14,C   3,H   9)     49.9138         0.010000   
    667. D(H  20,C  14,C   3,C   4)   -180.0000         0.010000   
    668. D(H  20,C  14,C   3,C   2)    -71.3028         0.010000   
    669. D(C  15,C  14,C   3,C  16)     37.9365         0.010000   
    670. D(C  15,C  14,C   3,H   9)    -58.7834         0.010000   
    671. D(C  15,C  14,C   3,C   4)     71.3028         0.010000   
    672. D(C  13,C  14,C   3,C  17)    -49.9138         0.010000   
    673. D(C  13,C  14,C   3,C  15)   -121.2166         0.010000   
    674. D(C  13,C  14,C   3,C  16)    -83.2801         0.010000   
    675. D(C  13,C  14,C   3,H   9)    180.0000         0.010000   
    676. D(C  13,C  14,C   3,C   2)     58.7834         0.010000   
    677. D(H  20,C  14,C   2,C  16)    147.7151         0.010000   
    678. D(H  20,C  14,C   2,H   8)      0.0000         0.010000   
    679. D(H  20,C  14,C   2,C   3)    115.4302         0.010000   
    680. D(H  20,C  14,C   2,C   1)   -122.2849         0.010000   
    681. D(C  15,C  14,C   2,C  12)     94.4692         0.010000   
    682. D(C  15,C  14,C   2,C  13)    122.2849         0.010000   
    683. D(C  15,C  14,C   2,C  17)     64.5698         0.010000   
    684. D(C  15,C  14,C   2,C  16)     32.2849         0.010000   
    685. D(C  15,C  14,C   2,H   8)   -115.4302         0.010000   
    686. D(C  15,C  14,C   2,C   3)      0.0000         0.010000   
    687. D(C  15,C  14,C   2,C   1)    122.2849         0.010000   
    688. D(C  13,C  14,C   2,C  12)    -27.8156         0.010000   
    689. D(C  13,C  14,C   2,C  16)    -90.0000         0.010000   
    690. D(C  13,C  14,C   2,H   8)    122.2849         0.010000   
    691. D(C  13,C  14,C   1,C  17)    -65.9067         0.010000   
    692. D(C  15,C  14,C   3,C   2)   -180.0000         0.010000   
    693. D(H  20,C  14,C   1,C  12)   -145.4928         0.010000   
    694. D(C  15,C  14,C   1,C   2)    -53.3532         0.010000   
    695. D(H  20,C  14,C   1,C   0)   -180.0000         0.010000   
    696. D(C  15,C  14,C   1,C  16)     28.2070         0.010000   
    697. D(C  15,C  14,C   1,C  17)     60.7400         0.010000   
    698. D(C  15,C  14,C   1,C  12)     95.2472         0.010000   
    699. D(C  15,C  14,C   1,H   7)   -180.0000         0.010000   
    700. D(C  15,C  14,C   1,C  13)    126.6468         0.010000   
    701. D(H  20,C  14,C   1,C   2)     65.9067         0.010000   
    702. D(C  15,C  14,C   1,C   0)     60.7400         0.010000   
    703. D(H  20,C  14,C   1,H   7)    -60.7400         0.010000   
    704. D(C  15,C  14,C  13,C   1)    -66.0375         0.044273   
    705. D(C  13,C  14,C   1,C  15)   -126.6468         0.010000   
    706. D(C  13,C  14,C   1,C  16)    -98.4397         0.010000   
    707. D(C  13,C  14,C   2,C   3)   -122.2849         0.010000   
    708. D(H  20,C  14,C  13,H  19)      0.0000         0.044273   
    709. D(C  13,C  14,C   1,C  12)    -31.3995         0.010000   
    710. D(C  13,C  14,C   1,H   7)     53.3533         0.010000   
    711. D(C  13,C  14,C   1,C   2)    180.0000         0.010000   
    712. D(C  13,C  14,C   2,C  15)   -122.2849         0.010000   
    713. D(C  13,C  14,C   2,C   1)      0.0000         0.010000   
    714. D(C  13,C  14,C   1,C   0)    -65.9067         0.010000   
    715. D(C  13,C  14,C   2,C  17)    -57.7151         0.010000   
    716. D(H  20,C  14,C   1,C  17)   -180.0000         0.010000   
    717. D(C   3,C  15,C  14,H  20)   -102.5288         0.047243   
    718. D(C   3,C  15,C  14,C  13)     77.4712         0.047243   
    719. D(C   2,C  15,C  14,C   3)      0.0000         0.047243   
    720. D(C   2,C  15,C  14,H  20)   -102.5288         0.047243   
    721. D(C   2,C  15,C  14,C  13)     77.4712         0.047243   
    722. D(H  21,C  15,C  14,C   3)    102.5288         0.047243   
    723. D(H  21,C  15,C  14,C   2)    102.5288         0.047243   
    724. D(H  21,C  15,C  14,H  20)      0.0000         0.047243   
    725. D(H  21,C  15,C  14,C  13)    180.0000         0.047243   
    726. D(C  16,C  15,C  14,C   1)    -60.8443         0.047243   
    727. D(C  16,C  15,C  14,C   2)    -77.4712         0.047243   
    728. D(C  16,C  15,C  14,H  20)    180.0000         0.047243   
    729. D(C  16,C  15,C  14,C  13)      0.0000         0.047243   
    730. D(C   2,C  15,C   4,C   5)    -83.2801         0.010000   
    731. D(C   2,C  15,C   4,C   3)     37.9365         0.010000   
    732. D(H  21,C  15,C   4,C  17)    154.0374         0.010000   
    733. D(H  21,C  15,C   4,H  10)     49.9138         0.010000   
    734. D(H  21,C  15,C   4,C   5)    180.0000         0.010000   
    735. D(H  21,C  15,C   4,C   3)    -58.7834         0.010000   
    736. D(C  16,C  15,C   4,H  10)    -71.3028         0.010000   
    737. D(C  16,C  15,C   4,C   5)     58.7834         0.010000   
    738. D(C  16,C  15,C   4,C   3)   -180.0000         0.010000   
    739. D(C  14,C  15,C   4,C  16)   -108.6972         0.010000   
    740. D(C  14,C  15,C   4,H  10)   -180.0000         0.010000   
    741. D(C  14,C  15,C   4,C   5)    -49.9138         0.010000   
    742. D(C  14,C  15,C   4,C   3)     71.3028         0.010000   
    743. D(C   2,C  15,C   3,H   9)    122.2849         0.010000   
    744. D(C   2,C  15,C   3,C   4)   -115.4302         0.010000   
    745. D(H  21,C  15,C   3,C  14)   -122.2849         0.010000   
    746. D(H  21,C  15,C   3,C  16)    122.2849         0.010000   
    747. D(H  21,C  15,C   3,H   9)      0.0000         0.010000   
    748. D(H  21,C  15,C   3,C   4)    122.2849         0.010000   
    749. D(C  16,C  15,C   3,C  14)    115.4302         0.010000   
    750. D(C  16,C  15,C   3,C  17)     29.8995         0.010000   
    751. D(C  16,C  15,C   3,H   9)   -122.2849         0.010000   
    752. D(C  16,C  15,C   3,C   2)    115.4302         0.010000   
    753. D(C  14,C  15,C   3,C  17)    -85.5308         0.010000   
    754. D(C  14,C  15,C   3,C  16)   -115.4302         0.010000   
    755. D(C  14,C  15,C   3,H   9)    122.2849         0.010000   
    756. D(C  14,C  15,C   3,C   4)   -115.4302         0.010000   
    757. D(C  14,C  15,C   3,C   2)      0.0000         0.010000   
    758. D(H  21,C  15,C   2,C  13)   -149.9906         0.010000   
    759. D(H  21,C  15,C   2,H   8)    -61.2029         0.010000   
    760. D(C  16,C  15,C   2,C  13)     91.2122         0.010000   
    761. D(C  16,C  15,C   2,C   3)    -59.3740         0.010000   
    762. D(C  14,C  15,C   2,C  13)    -29.4138         0.010000   
    763. D(C  14,C  15,C   2,C  17)    -90.0332         0.010000   
    764. D(C  16,C  15,C   3,C   4)      0.0000         0.010000   
    765. D(C  14,C  15,C   2,C   1)    -59.4231         0.010000   
    766. D(H  21,C  15,C   1,C  12)    180.0000         0.010000   
    767. D(C  16,C  15,C   1,C  14)    126.7202         0.010000   
    768. D(H  21,C  15,C   3,C   2)   -122.2849         0.010000   
    769. D(C  16,C  15,C   1,C  12)     65.8495         0.010000   
    770. D(C  16,C  15,C   1,H   7)    126.7202         0.010000   
    771. D(C  14,C  15,C   1,C  13)    -28.2582         0.010000   
    772. D(H  21,C  15,C   3,C  17)    152.1844         0.010000   
    773. D(C  14,C  15,C   1,C   2)    119.1293         0.010000   
    774. D(C  14,C  15,C   1,C   0)   -126.7202         0.010000   
    775. D(C  14,C  15,C   1,C  17)    -95.3888         0.010000   
    776. D(C  16,C  15,C   1,C   0)      0.0000         0.010000   
    777. D(C  14,C  15,C   1,C  16)   -126.7202         0.010000   
    778. D(C  14,C  15,C   1,C  12)    -60.8707         0.010000   
    779. D(C  16,C  15,C   1,C  17)     31.3314         0.010000   
    780. D(C  14,C  15,C   4,C  17)    -75.8764         0.010000   
    781. D(C  16,C  15,C   1,C   2)   -114.1505         0.010000   
    782. D(H  21,C  15,C   1,C   2)      0.0000         0.010000   
    783. D(H  21,C  15,C   1,C   0)    114.1505         0.010000   
    784. D(C  16,C  15,C   4,C  17)     32.8208         0.010000   
    785. D(H  21,C  15,C   1,H   7)   -119.1293         0.010000   
    786. D(H  21,C  15,C   1,C  13)   -147.3875         0.010000   
    787. D(H  21,C  15,C   1,C  16)    114.1505         0.010000   
    788. D(H  21,C  15,C   4,C  16)    121.2166         0.010000   
    789. D(H  21,C  15,C   1,C  17)    145.4819         0.010000   
    790. D(C  16,C  15,C   1,C  13)     98.4620         0.010000   
    791. D(C  14,C  15,C   1,H   7)      0.0000         0.010000   
    792. D(C  14,C  15,C   2,C  16)   -120.6260         0.010000   
    793. D(C  14,C  15,C   2,C  12)    -59.4231         0.010000   
    794. D(C  14,C  15,C   2,H   8)     59.3740         0.010000   
    795. D(C  16,C  15,C   2,H   8)    180.0000         0.010000   
    796. D(C  16,C  15,C  14,C   3)    -77.4712         0.047243   
    797. D(C  16,C  15,C   2,C   1)     61.2028         0.010000   
    798. D(C  16,C  15,C   2,C  14)    120.6260         0.010000   
    799. D(C  14,C  15,C   2,C   3)   -180.0000         0.010000   
    800. D(H  21,C  15,C  14,C   1)    119.1557         0.047243   
    801. D(C  16,C  15,C   2,C  12)     61.2028         0.010000   
    802. D(H  21,C  15,C   2,C   1)    180.0000         0.010000   
    803. D(H  21,C  15,C   2,C   3)     59.4231         0.010000   
    804. D(C   2,C  15,C  14,C   1)     16.6269         0.047243   
    805. D(H  21,C  15,C   2,C  14)   -120.5769         0.010000   
    806. D(H  21,C  15,C   2,C  17)    149.3900         0.010000   
    807. D(H  21,C  15,C   2,C  16)    118.7972         0.010000   
    808. D(C  16,C  15,C   2,C  17)     30.5928         0.010000   
    809. D(C  15,C  16,C   4,C   5)   -122.2849         0.010000   
    810. D(C  15,C  16,C   4,C   3)      0.0000         0.010000   
    811. D(C   2,C  16,C   3,C  14)     29.9762         0.010000   
    812. D(C   2,C  16,C   3,C  15)     59.3740         0.010000   
    813. D(C   2,C  16,C   3,H   9)    118.7972         0.010000   
    814. D(C   2,C  16,C   3,C   4)   -120.6260         0.010000   
    815. D(H  22,C  16,C   3,C  17)    118.7971         0.010000   
    816. D(H  22,C  16,C   3,C  15)   -120.6260         0.010000   
    817. D(H  22,C  16,C   3,H   9)    -61.2029         0.010000   
    818. D(H  22,C  16,C   3,C   4)     59.3740         0.010000   
    819. D(H  22,C  16,C   3,C   2)    180.0000         0.010000   
    820. D(C  17,C  16,C   3,C  14)     91.1791         0.010000   
    821. D(C  17,C  16,C   3,C  15)    120.5769         0.010000   
    822. D(C  17,C  16,C   3,C   4)    -59.4231         0.010000   
    823. D(C  17,C  16,C   3,C   2)     61.2028         0.010000   
    824. D(C  15,C  16,C   3,C  14)    -29.3978         0.010000   
    825. D(C  15,C  16,C   3,H   9)     59.4231         0.010000   
    826. D(C  15,C  16,C   3,C   4)   -180.0000         0.010000   
    827. D(C  15,C  16,C   3,C   2)    -59.3740         0.010000   
    828. D(C   3,C  16,C   2,C   1)    120.6263         0.010000   
    829. D(H  22,C  16,C   2,C  12)    150.0078         0.010000   
    830. D(H  22,C  16,C   2,C  13)    180.0000         0.010000   
    831. D(H  22,C  16,C   2,C  17)    120.6263         0.010000   
    832. D(H  22,C  16,C   2,C  14)   -149.3737         0.010000   
    833. D(H  22,C  16,C   2,C  15)   -118.7474         0.010000   
    834. D(H  22,C  16,C   2,H   8)   -118.7474         0.010000   
    835. D(H  22,C  16,C   2,C   1)    120.6263         0.010000   
    836. D(C  17,C  16,C   2,C  12)     29.3815         0.010000   
    837. D(C  17,C  16,C   2,C  13)     59.3737         0.010000   
    838. D(C  17,C  16,C   2,C  15)    120.6263         0.010000   
    839. D(C  17,C  16,C   2,H   8)    120.6263         0.010000   
    840. D(C  17,C  16,C   2,C   3)   -120.6263         0.010000   
    841. D(C  15,C  16,C   2,C  12)    -91.2449         0.010000   
    842. D(C  15,C  16,C   2,C  13)    -61.2527         0.010000   
    843. D(C  15,C  16,C   2,C  17)   -120.6263         0.010000   
    844. D(C  15,C  16,C   2,C  14)    -30.6263         0.010000   
    845. D(C  15,C  16,C   2,H   8)     -0.0000         0.010000   
    846. D(C  15,C  16,C   2,C   3)    118.7473         0.010000   
    847. D(C  15,C  16,C   2,C   1)   -120.6263         0.010000   
    848. D(C   3,C  16,C   1,C   2)    -32.3114         0.010000   
    849. D(C   3,C  16,C   1,C   0)     90.0626         0.010000   
    850. D(H  22,C  16,C   1,C  15)   -122.2846         0.010000   
    851. D(H  22,C  16,C   1,C  14)   -150.0733         0.010000   
    852. D(H  22,C  16,C   1,C  13)    180.0000         0.010000   
    853. D(H  22,C  16,C   1,C  17)    115.3413         0.010000   
    854. D(H  22,C  16,C   1,C  12)    147.6527         0.010000   
    855. D(H  22,C  16,C   1,H   7)    180.0000         0.010000   
    856. D(H  22,C  16,C   1,C   2)    -64.6587         0.010000   
    857. D(H  22,C  16,C   1,C   0)     57.7154         0.010000   
    858. D(C  17,C  16,C   1,C  15)    122.3741         0.010000   
    859. D(C  17,C  16,C   1,C  14)     94.5854         0.010000   
    860. D(C  17,C  16,C   2,C   1)      0.0000         0.010000   
    861. D(C  17,C  16,C   1,C  13)     64.6587         0.010000   
    862. D(C  17,C  16,C   1,C  12)     32.3114         0.010000   
    863. D(C  17,C  16,C   1,H   7)     64.6587         0.010000   
    864. D(C  17,C  16,C   2,C  14)     90.0000         0.010000   
    865. D(C  17,C  16,C   1,C   2)    180.0000         0.010000   
    866. D(C  17,C  16,C   1,C   0)    -57.6259         0.010000   
    867. D(C  15,C  16,C   1,C  14)    -27.7886         0.010000   
    868. D(H  22,C  16,C   2,C   3)     -0.0000         0.010000   
    869. D(C  15,C  16,C   1,C  13)    -57.7154         0.010000   
    870. D(C  15,C  16,C   1,C  17)   -122.3741         0.010000   
    871. D(C  15,C  16,C   1,C  12)    -90.0626         0.010000   
    872. D(C  15,C  16,C   1,H   7)    -57.7154         0.010000   
    873. D(C  15,C  16,C   1,C   2)     57.6259         0.010000   
    874. D(C  15,C  16,C   1,C   0)    180.0000         0.010000   
    875. D(C   3,C  16,C   0,C  17)    180.0000         0.010000   
    876. D(C   3,C  16,C   2,H   8)   -118.7474         0.010000   
    877. D(C   3,C  16,C   0,H   6)    180.0000         0.010000   
    878. D(C   3,C  16,C   0,C   5)     60.8707         0.010000   
    879. D(C   3,C  16,C   0,C   1)    -65.8495         0.010000   
    880. D(C  15,C  16,C   3,C  17)   -120.5769         0.010000   
    881. D(H  22,C  16,C   0,C  13)    180.0000         0.010000   
    882. D(H  22,C  16,C   0,C  12)    151.7418         0.010000   
    883. D(H  22,C  16,C   0,C  17)    119.1293         0.010000   
    884. D(C  17,C  16,C   3,H   9)    180.0000         0.010000   
    885. D(H  22,C  16,C   0,H   6)    119.1293         0.010000   
    886. D(H  22,C  16,C   0,C   5)     -0.0000         0.010000   
    887. D(H  22,C  16,C   0,C   1)   -126.7202         0.010000   
    888. D(C  17,C  16,C   0,C  13)     60.8707         0.010000   
    889. D(C  17,C  16,C   0,C  12)     32.6125         0.010000   
    890. D(C  17,C  16,C   0,H   6)      0.0000         0.010000   
    891. D(C  17,C  16,C   0,C   5)   -119.1293         0.010000   
    892. D(H  22,C  16,C   3,C  14)   -150.0238         0.010000   
    893. D(C  17,C  16,C   0,C   1)    114.1505         0.010000   
    894. D(C  15,C  16,C   0,C  13)    -53.2798         0.010000   
    895. D(C  15,C  16,C   0,C  12)    -81.5380         0.010000   
    896. D(C   2,C  16,C   3,C  17)    -61.2028         0.010000   
    897. D(C  15,C  16,C   0,C  17)   -114.1505         0.010000   
    898. D(C  15,C  16,C   0,H   6)   -114.1505         0.010000   
    899. D(C  15,C  16,C   0,C   5)    126.7202         0.010000   
    900. D(C  15,C  16,C   4,H  10)    115.4302         0.010000   
    901. D(C  15,C  16,C   0,C   1)      0.0000         0.010000   
    902. D(C   2,C  16,C  15,C   3)    -18.9998         0.054103   
    903. D(C   2,C  16,C  15,H  21)    -96.4710         0.054103   
    904. D(C   2,C  16,C  15,C  14)     83.5290         0.054103   
    905. D(C   3,C  16,C  15,C   4)      0.0000         0.054103   
    906. D(C   3,C  16,C  15,C   1)     36.7121         0.054103   
    907. D(C   3,C  16,C  15,C   2)     18.9998         0.054103   
    908. D(C   3,C  16,C  15,H  21)    -77.4712         0.054103   
    909. D(H  22,C  16,C  15,C   4)     77.4712         0.054103   
    910. D(H  22,C  16,C  15,C   1)    114.1833         0.054103   
    911. D(H  22,C  16,C  15,C   3)     77.4712         0.054103   
    912. D(H  22,C  16,C  15,H  21)      0.0000         0.054103   
    913. D(H  22,C  16,C  15,C  14)    180.0000         0.054103   
    914. D(C  17,C  16,C  15,C   4)   -102.5288         0.054103   
    915. D(C  17,C  16,C  15,C   3)   -102.5288         0.054103   
    916. D(C  17,C  16,C  15,C   2)    -83.5290         0.054103   
    917. D(C  17,C  16,C  15,H  21)    180.0000         0.054103   
    918. D(C  17,C  16,C  15,C  14)      0.0000         0.054103   
    919. D(C   3,C  16,C   5,C  12)   -121.2713         0.010000   
    920. D(C   3,C  16,C   5,C  17)   -148.6005         0.010000   
    921. D(C   3,C  16,C   5,H  11)    145.4928         0.010000   
    922. D(C   3,C  16,C   5,C   0)    -95.2472         0.010000   
    923. D(H  22,C  16,C   5,C  12)    153.9759         0.010000   
    924. D(H  22,C  16,C   5,C  17)    126.6467         0.010000   
    925. D(H  22,C  16,C   5,H  11)     60.7400         0.010000   
    926. D(H  22,C  16,C   5,C   4)    -53.3533         0.010000   
    927. D(H  22,C  16,C   5,C   0)    180.0000         0.010000   
    928. D(C  17,C  16,C   5,C  12)     27.3292         0.010000   
    929. D(C  17,C  16,C   5,H  11)    -65.9067         0.010000   
    930. D(C  17,C  16,C   5,C   4)    180.0000         0.010000   
    931. D(C  17,C  16,C   5,C   0)     53.3532         0.010000   
    932. D(C   3,C  16,C   5,C   4)     31.3995         0.010000   
    933. D(C  15,C  16,C   5,C  12)    -86.7641         0.010000   
    934. D(C  15,C  16,C   5,C  17)   -114.0933         0.010000   
    935. D(C  15,C  16,C   5,H  11)    180.0000         0.010000   
    936. D(C  15,C  16,C   5,C   4)     65.9067         0.010000   
    937. D(C  15,C  16,C   5,C   0)    -60.7400         0.010000   
    938. D(C   2,C  16,C   4,C   5)    -90.0000         0.010000   
    939. D(C   2,C  16,C   4,C   3)     32.2849         0.010000   
    940. D(C  17,C  16,C  15,C   1)    -65.8167         0.054103   
    941. D(C   3,C  16,C   4,C  15)      0.0000         0.010000   
    942. D(C   3,C  16,C   4,C  17)   -122.2849         0.010000   
    943. D(C   3,C  16,C   4,H  10)    115.4302         0.010000   
    944. D(H  22,C  16,C  15,C   2)     96.4710         0.054103   
    945. D(C   3,C  16,C   4,C   5)   -122.2849         0.010000   
    946. D(H  22,C  16,C   4,C  15)   -115.4302         0.010000   
    947. D(H  22,C  16,C   4,C  17)    122.2849         0.010000   
    948. D(C   3,C  16,C  15,C  14)    102.5288         0.054103   
    949. D(H  22,C  16,C   4,H  10)      0.0000         0.010000   
    950. D(H  22,C  16,C   4,C   5)    122.2849         0.010000   
    951. D(H  22,C  16,C   4,C   3)   -115.4302         0.010000   
    952. D(C  17,C  16,C   4,C  15)    122.2849         0.010000   
    953. D(C  17,C  16,C   4,H  10)   -122.2849         0.010000   
    954. D(C  17,C  16,C   4,C   5)      0.0000         0.010000   
    955. D(C  17,C  16,C   4,C   3)    122.2849         0.010000   
    956. D(C   2,C  16,C  15,C   1)     17.7123         0.054103   
    957. D(C  15,C  16,C   4,C  17)   -122.2849         0.010000   
    958. D(C   1,C  17,C  16,C  15)     77.2191         0.057910   
    959. D(C   0,C  17,C  16,C   5)    -17.7531         0.057910   
    960. D(C   0,C  17,C  16,C   1)     18.9903         0.057910   
    961. D(C   0,C  17,C  16,C   4)    -17.7531         0.057910   
    962. D(C   0,C  17,C  16,C   2)     18.9903         0.057910   
    963. D(C   0,C  17,C  16,H  22)    -83.7906         0.057910   
    964. D(C   0,C  17,C  16,C  15)     96.2094         0.057910   
    965. D(H  23,C  17,C  16,C   0)     83.7906         0.057910   
    966. D(H  23,C  17,C  16,C   1)    102.7809         0.057910   
    967. D(H  23,C  17,C  16,C   4)     66.0375         0.057910   
    968. D(H  23,C  17,C  16,C   2)    102.7809         0.057910   
    969. D(H  23,C  17,C  16,H  22)      0.0000         0.057910   
    970. D(H  23,C  17,C  16,C  15)    180.0000         0.057910   
    971. D(C  12,C  17,C  16,C   0)    -96.2094         0.057910   
    972. D(C  12,C  17,C  16,C   5)   -113.9625         0.057910   
    973. D(C  12,C  17,C  16,C   1)    -77.2191         0.057910   
    974. D(C  12,C  17,C  16,C   4)   -113.9625         0.057910   
    975. D(C  12,C  17,C  16,C   2)    -77.2191         0.057910   
    976. D(C  12,C  17,C  16,H  22)    180.0000         0.057910   
    977. D(C  12,C  17,C  16,C  15)      0.0000         0.057910   
    978. D(C   1,C  17,C  12,C   2)    -17.7123         0.054103   
    979. D(C   1,C  17,C  12,H  18)     96.4710         0.054103   
    980. D(C   1,C  17,C  12,C  13)    -83.5290         0.054103   
    981. D(C   0,C  17,C  12,C   5)      0.0000         0.054103   
    982. D(C   0,C  17,C  12,C   1)    -18.9998         0.054103   
    983. D(C   0,C  17,C  12,H  18)     77.4712         0.054103   
    984. D(C   0,C  17,C  12,C  13)   -102.5288         0.054103   
    985. D(H  23,C  17,C  12,C   5)    -77.4712         0.054103   
    986. D(H  23,C  17,C  12,C   2)   -114.1833         0.054103   
    987. D(H  23,C  17,C  12,C   0)    -77.4712         0.054103   
    988. D(H  23,C  17,C  12,C   1)    -96.4710         0.054103   
    989. D(H  23,C  17,C  12,C  13)    180.0000         0.054103   
    990. D(C  16,C  17,C  12,C   5)    102.5288         0.054103   
    991. D(C  16,C  17,C  12,C   2)     65.8167         0.054103   
    992. D(C  16,C  17,C  12,C   1)     83.5290         0.054103   
    993. D(C  16,C  17,C  12,H  18)    180.0000         0.054103   
    994. D(C  16,C  17,C  12,C  13)      0.0000         0.054103   
    995. D(C   1,C  17,C   5,C   0)    -32.2849         0.010000   
    996. D(C   0,C  17,C   5,C  12)      0.0000         0.010000   
    997. D(C   0,C  17,C   5,C  16)    122.2849         0.010000   
    998. D(C   0,C  17,C   5,H  11)   -115.4302         0.010000   
    999. D(C   0,C  17,C   5,C   4)    122.2849         0.010000   
   1000. D(H  23,C  17,C   5,C  12)    115.4302         0.010000   
   1001. D(H  23,C  17,C   5,C  16)   -122.2849         0.010000   
   1002. D(H  23,C  17,C   5,C   4)   -122.2849         0.010000   
   1003. D(H  23,C  17,C   5,C   0)    115.4302         0.010000   
   1004. D(C  16,C  17,C   5,C  12)   -122.2849         0.010000   
   1005. D(C  16,C  17,C   5,C   4)      0.0000         0.010000   
   1006. D(C  16,C  17,C   5,C   0)   -122.2849         0.010000   
   1007. D(C  12,C  17,C   5,C  16)    122.2849         0.010000   
   1008. D(C  12,C  17,C   5,C   4)    122.2849         0.010000   
   1009. D(C  12,C  17,C   5,C   0)     -0.0000         0.010000   
   1010. D(C   0,C  17,C   4,C  15)    121.2713         0.010000   
   1011. D(C   0,C  17,C   4,C  16)    148.6005         0.010000   
   1012. D(C   0,C  17,C   4,H  10)   -145.4928         0.010000   
   1013. D(C   0,C  17,C   4,C   5)    -31.3995         0.010000   
   1014. D(C   0,C  17,C   4,C   3)     95.2472         0.010000   
   1015. D(H  23,C  17,C   4,C  16)   -126.6467         0.010000   
   1016. D(H  23,C  17,C   4,H  10)    -60.7400         0.010000   
   1017. D(H  23,C  17,C   4,C   5)     53.3533         0.010000   
   1018. D(C  16,C  17,C   4,C  15)    -27.3292         0.010000   
   1019. D(C  16,C  17,C   4,H  10)     65.9067         0.010000   
   1020. D(C  16,C  17,C   4,C   5)    180.0000         0.010000   
   1021. D(C  12,C  17,C   4,C  15)     86.7641         0.010000   
   1022. D(C  12,C  17,C   4,C  16)    114.0933         0.010000   
   1023. D(C  12,C  17,C   4,H  10)   -180.0000         0.010000   
   1024. D(C  12,C  17,C   4,C   5)    -65.9067         0.010000   
   1025. D(C  12,C  17,C   4,C   3)     60.7400         0.010000   
   1026. D(C   0,C  17,C   3,C  16)    180.0000         0.010000   
   1027. D(C   0,C  17,C   3,H   9)    180.0000         0.010000   
   1028. D(C   0,C  17,C   3,C   2)     65.8495         0.010000   
   1029. D(H  23,C  17,C   3,C  14)   -180.0000         0.010000   
   1030. D(H  23,C  17,C   3,C  15)   -151.7418         0.010000   
   1031. D(H  23,C  17,C   3,H   9)   -119.1293         0.010000   
   1032. D(H  23,C  17,C   3,C   4)      0.0000         0.010000   
   1033. D(H  23,C  17,C   3,C   2)    126.7202         0.010000   
   1034. D(C  16,C  17,C   3,C  14)    -60.8707         0.010000   
   1035. D(C  16,C  17,C   3,C  15)    -32.6125         0.010000   
   1036. D(C  16,C  17,C   3,H   9)      0.0000         0.010000   
   1037. D(C  16,C  17,C   3,C   4)    119.1293         0.010000   
   1038. D(C  16,C  17,C   3,C   2)   -114.1505         0.010000   
   1039. D(C  12,C  17,C   3,C  14)     53.2798         0.010000   
   1040. D(H  23,C  17,C   3,C  16)   -119.1293         0.010000   
   1041. D(C  12,C  17,C   3,C  15)     81.5380         0.010000   
   1042. D(C  12,C  17,C   3,C  16)    114.1505         0.010000   
   1043. D(C  12,C  17,C   3,H   9)    114.1505         0.010000   
   1044. D(C   0,C  17,C   3,C   4)    -60.8707         0.010000   
   1045. D(C  12,C  17,C   3,C   4)   -126.7202         0.010000   
   1046. D(C  12,C  17,C   3,C   2)      0.0000         0.010000   
   1047. D(C   0,C  17,C   2,C   3)    -90.0626         0.010000   
   1048. D(C   0,C  17,C   2,C   1)     32.3114         0.010000   
   1049. D(H  23,C  17,C   2,C  12)    122.2846         0.010000   
   1050. D(H  23,C  17,C   2,C  13)    150.0733         0.010000   
   1051. D(H  23,C  17,C   2,C  14)   -180.0000         0.010000   
   1052. D(C  16,C  17,C   4,C   3)    -53.3532         0.010000   
   1053. D(H  23,C  17,C   2,C  16)   -115.3413         0.010000   
   1054. D(H  23,C  17,C   2,C  15)   -147.6527         0.010000   
   1055. D(H  23,C  17,C   2,H   8)    180.0000         0.010000   
   1056. D(H  23,C  17,C   4,C   3)   -180.0000         0.010000   
   1057. D(H  23,C  17,C   2,C   3)    -57.7154         0.010000   
   1058. D(H  23,C  17,C   2,C   1)     64.6587         0.010000   
   1059. D(C  16,C  17,C   2,C  12)   -122.3741         0.010000   
   1060. D(H  23,C  17,C   4,C  15)   -153.9759         0.010000   
   1061. D(C  16,C  17,C   2,C  13)    -94.5854         0.010000   
   1062. D(C  16,C  17,C   2,C  14)    -64.6587         0.010000   
   1063. D(C  16,C  17,C   2,C  15)    -32.3114         0.010000   
   1064. D(C  16,C  17,C   2,H   8)    -64.6587         0.010000   
   1065. D(C  16,C  17,C   2,C   3)     57.6259         0.010000   
   1066. D(C  16,C  17,C   2,C   1)    180.0000         0.010000   
   1067. D(C  12,C  17,C   2,C  13)     27.7886         0.010000   
   1068. D(C  12,C  17,C   5,H  11)   -115.4302         0.010000   
   1069. D(C  12,C  17,C   2,C  14)     57.7154         0.010000   
   1070. D(C  12,C  17,C   2,C  16)    122.3741         0.010000   
   1071. D(C  12,C  17,C   2,C  15)     90.0626         0.010000   
   1072. D(C  16,C  17,C   5,H  11)    122.2849         0.010000   
   1073. D(C  12,C  17,C   2,H   8)     57.7154         0.010000   
   1074. D(C  12,C  17,C   2,C   3)    180.0000         0.010000   
   1075. D(C  12,C  17,C   2,C   1)    -57.6259         0.010000   
   1076. D(H  23,C  17,C   5,H  11)     -0.0000         0.010000   
   1077. D(C   0,C  17,C   1,H   7)    118.7474         0.010000   
   1078. D(C   0,C  17,C   1,C   2)   -120.6263         0.010000   
   1079. D(H  23,C  17,C   1,C  15)   -150.0078         0.010000   
   1080. D(H  23,C  17,C   1,C  14)   -180.0000         0.010000   
   1081. D(H  23,C  17,C   1,C  16)   -120.6263         0.010000   
   1082. D(H  23,C  17,C   1,C  13)    149.3737         0.010000   
   1083. D(H  23,C  17,C   1,C  12)    118.7474         0.010000   
   1084. D(C   1,C  17,C   5,C   4)     90.0000         0.010000   
   1085. D(H  23,C  17,C   1,H   7)    118.7474         0.010000   
   1086. D(H  23,C  17,C   1,C   2)   -120.6263         0.010000   
   1087. D(H  23,C  17,C   1,C   0)      0.0000         0.010000   
   1088. D(C  16,C  17,C  12,C   0)    102.5288         0.054103   
   1089. D(C  16,C  17,C   1,C  15)    -29.3815         0.010000   
   1090. D(C  16,C  17,C   1,C  14)    -59.3737         0.010000   
   1091. D(C  16,C  17,C   1,C  13)    -90.0000         0.010000   
   1092. D(H  23,C  17,C  12,H  18)      0.0000         0.054103   
   1093. D(C  16,C  17,C   1,C  12)   -120.6263         0.010000   
   1094. D(C  16,C  17,C   1,H   7)   -120.6263         0.010000   
   1095. D(C  16,C  17,C   1,C   2)      0.0000         0.010000   
   1096. D(C  16,C  17,C   1,C   0)    120.6263         0.010000   
   1097. D(C  12,C  17,C   1,C  15)     91.2449         0.010000   
   1098. D(C  12,C  17,C   1,C  14)     61.2527         0.010000   
   1099. D(C  12,C  17,C   1,C  16)    120.6263         0.010000   
   1100. D(C   0,C  17,C  12,C   2)    -36.7121         0.054103   
   1101. D(C  12,C  17,C   1,C  13)     30.6263         0.010000   
   1102. D(C  12,C  17,C   1,H   7)      0.0000         0.010000   
   1103. D(C  12,C  17,C   1,C   2)    120.6263         0.010000   
   1104. D(C   1,C  17,C  12,C   0)     18.9998         0.054103   
   1105. D(C  12,C  17,C   1,C   0)   -118.7473         0.010000   
   1106. D(C   1,C  17,C   0,C  13)    -29.9762         0.010000   
   1107. D(C   1,C  17,C   0,C  16)     61.2028         0.010000   
   1108. D(C  12,C  17,C  16,C   3)    -96.2094         0.057910   
   1109. D(C   1,C  17,C   0,C  12)    -59.3740         0.010000   
   1110. D(C   1,C  17,C   0,H   6)   -118.7972         0.010000   
   1111. D(C   1,C  17,C   0,C   5)    120.6260         0.010000   
   1112. D(H  23,C  17,C   0,C  13)    150.0238         0.010000   
   1113. D(H  23,C  17,C   0,C  16)   -118.7971         0.010000   
   1114. D(H  23,C  17,C   0,C  12)    120.6260         0.010000   
   1115. D(H  23,C  17,C   0,H   6)     61.2029         0.010000   
   1116. D(H  23,C  17,C  16,C   3)     83.7906         0.057910   
   1117. D(H  23,C  17,C   0,C   5)    -59.3740         0.010000   
   1118. D(H  23,C  17,C   0,C   1)   -180.0000         0.010000   
   1119. D(C  16,C  17,C   0,C  13)    -91.1791         0.010000   
   1120. D(H  23,C  17,C  16,C   5)     66.0375         0.057910   
   1121. D(C  16,C  17,C   0,C  12)   -120.5769         0.010000   
   1122. D(C  16,C  17,C   0,H   6)    180.0000         0.010000   
   1123. D(C  16,C  17,C   0,C   5)     59.4231         0.010000   
   1124. D(C   0,C  17,C  16,C   3)      0.0000         0.057910   
   1125. D(C  16,C  17,C   0,C   1)    -61.2028         0.010000   
   1126. D(C  12,C  17,C   0,C  13)     29.3978         0.010000   
   1127. D(C  12,C  17,C   0,C  16)    120.5769         0.010000   
   1128. D(C  12,C  17,C   0,H   6)    -59.4231         0.010000   
   1129. D(C  12,C  17,C   0,C   5)    180.0000         0.010000   
   1130. D(C  12,C  17,C   0,C   1)     59.3740         0.010000   
    -----------------------------------------------------------------

Number of atoms                         .... 24
Number of degrees of freedom            .... 1130


         *************************************************************
         *                GEOMETRY OPTIMIZATION CYCLE   1            *
         *************************************************************
---------------------------------
CARTESIAN COORDINATES (ANGSTROEM)
---------------------------------
  C     -0.800000    1.395248   -1.800000
  C      0.408320    0.697624   -1.800000
  C      0.408320   -0.697624   -1.800000
  C     -0.800000   -1.395248   -1.800000
  C     -2.008320   -0.697624   -1.800000
  C     -2.008320    0.697624   -1.800000
  H     -0.800000    2.482360   -1.800000
  H      1.349787    1.241180   -1.800000
  H      1.349787   -1.241180   -1.800000
  H     -0.800000   -2.482360   -1.800000
  H     -2.949787   -1.241180   -1.800000
  H     -2.949787    1.241180   -1.800000
  C      0.800000    1.395248    1.800000
  C      2.008320    0.697624    1.800000
  C      2.008320   -0.697624    1.800000
  C      0.800000   -1.395248    1.800000
  C     -0.408320   -0.697624    1.800000
  C     -0.408320    0.697624    1.800000
  H      0.800000    2.482360    1.800000
  H      2.949787    1.241180    1.800000
  H      2.949787   -1.241180    1.800000
  H      0.800000   -2.482360    1.800000
  H     -1.349787   -1.241180    1.800000
  H     -1.349787    1.241180    1.800000

----------------------------
CARTESIAN COORDINATES (A.U.)
----------------------------
  NO LB      ZA    FRAG     MASS         X           Y           Z
   0 C     6.0000    0    12.011   -1.511781    2.636637   -3.401507
   1 C     6.0000    0    12.011    0.771613    1.318318   -3.401507
   2 C     6.0000    0    12.011    0.771613   -1.318318   -3.401507
   3 C     6.0000    0    12.011   -1.511781   -2.636637   -3.401507
   4 C     6.0000    0    12.011   -3.795175   -1.318318   -3.401507
   5 C     6.0000    0    12.011   -3.795175    1.318318   -3.401507
   6 H     1.0000    0     1.008   -1.511781    4.690981   -3.401507
   7 H     1.0000    0     1.008    2.550728    2.345490   -3.401507
   8 H     1.0000    0     1.008    2.550728   -2.345490   -3.401507
   9 H     1.0000    0     1.008   -1.511781   -4.690981   -3.401507
  10 H     1.0000    0     1.008   -5.574290   -2.345490   -3.401507
  11 H     1.0000    0     1.008   -5.574290    2.345490   -3.401507
  12 C     6.0000    0    12.011    1.511781    2.636637    3.401507
  13 C     6.0000    0    12.011    3.795175    1.318318    3.401507
  14 C     6.0000    0    12.011    3.795175   -1.318318    3.401507
  15 C     6.0000    0    12.011    1.511781   -2.636637    3.401507
  16 C     6.0000    0    12.011   -0.771613   -1.318318    3.401507
  17 C     6.0000    0    12.011   -0.771613    1.318318    3.401507
  18 H     1.0000    0     1.008    1.511781    4.690981    3.401507
  19 H     1.0000    0     1.008    5.574290    2.345490    3.401507
  20 H     1.0000    0     1.008    5.574290   -2.345490    3.401507
  21 H     1.0000    0     1.008    1.511781   -4.690981    3.401507
  22 H     1.0000    0     1.008   -2.550728   -2.345490    3.401507
  23 H     1.0000    0     1.008   -2.550728    2.345490    3.401507

--------------------------------
INTERNAL COORDINATES (ANGSTROEM)
--------------------------------
 C      0   0   0     0.000000000000     0.00000000     0.00000000
 C      1   0   0     1.395247815901     0.00000000     0.00000000
 C      2   1   0     1.395248000000   120.00000436     0.00000000
 C      3   2   1     1.395247815901   120.00000436     0.00000000
 C      4   3   2     1.395247815901   119.99999127     0.00000000
 C      1   2   3     1.395247815901   119.99999127     0.00000000
 H      1   2   3     1.087112000000   120.00000436   180.00000085
 H      2   1   3     1.087112338825   120.00000595   180.00000000
 H      3   2   1     1.087112338825   119.99998969   180.00000000
 H      4   3   2     1.087112000000   120.00000436   180.00000085
 H      5   4   3     1.087112338825   120.00000595   180.00000000
 H      6   1   2     1.087112338825   120.00000595   180.00000000
 C      8   2   1     3.644996940190    83.71400588    83.52903596
 C     13   8   2     1.395247815901    81.27108476   119.47253033
 C     14  13   8     1.395248000000   120.00000436   267.74964476
 C     15  14  13     1.395247815901   120.00000436     0.00000000
 C     16  15  14     1.395247815901   119.99999127     0.00000000
 C     13   8   2     1.395247815901    96.28599246     0.00000000
 H     13   8   2     1.087112000000    92.42251968   239.46036490
 H     14  13   8     1.087112338825   120.00000595    87.74964476
 H     15  14  13     1.087112338825   119.99998969   180.00000000
 H     16  15  14     1.087112000000   120.00000436   180.00000000
 H     17  16  15     1.087112338825   120.00000595   180.00000000
 H     18  13   8     1.087112338825   120.00000595   263.52903436

---------------------------
INTERNAL COORDINATES (A.U.)
---------------------------
 C      0   0   0     0.000000000000     0.00000000     0.00000000
 C      1   0   0     2.636636261004     0.00000000     0.00000000
 C      2   1   0     2.636636608901   120.00000436     0.00000000
 C      3   2   1     2.636636261004   120.00000436     0.00000000
 C      4   3   2     2.636636261004   119.99999127     0.00000000
 C      1   2   3     2.636636261004   119.99999127     0.00000000
 H      1   2   3     2.054343956899   120.00000436   180.00000085
 H      2   1   3     2.054344597185   120.00000595   180.00000000
 H      3   2   1     2.054344597185   119.99998969   180.00000000
 H      4   3   2     2.054343956899   120.00000436   180.00000085
 H      5   4   3     2.054344597185   120.00000595   180.00000000
 H      6   1   2     2.054344597185   120.00000595   180.00000000
 C      8   2   1     6.888045975940    83.71400588    83.52903596
 C     13   8   2     2.636636261004    81.27108476   119.47253033
 C     14  13   8     2.636636608901   120.00000436   267.74964476
 C     15  14  13     2.636636261004   120.00000436     0.00000000
 C     16  15  14     2.636636261004   119.99999127     0.00000000
 C     13   8   2     2.636636261004    96.28599246     0.00000000
 H     13   8   2     2.054343956899    92.42251968   239.46036490
 H     14  13   8     2.054344597185   120.00000595    87.74964476
 H     15  14  13     2.054344597185   119.99998969   180.00000000
 H     16  15  14     2.054343956899   120.00000436   180.00000000
 H     17  16  15     2.054344597185   120.00000595   180.00000000
 H     18  13   8     2.054344597185   120.00000595   263.52903436

---------------------
BASIS SET INFORMATION
---------------------
There are 2 groups of distinct atoms

 Group   1 Type C   : 11s6p1d contracted to 5s3p1d pattern {62111/411/1}
 Group   2 Type H   : 5s contracted to 3s pattern {311}

Atom   0C    basis set group =>   1
Atom   1C    basis set group =>   1
Atom   2C    basis set group =>   1
Atom   3C    basis set group =>   1
Atom   4C    basis set group =>   1
Atom   5C    basis set group =>   1
Atom   6H    basis set group =>   2
Atom   7H    basis set group =>   2
Atom   8H    basis set group =>   2
Atom   9H    basis set group =>   2
Atom  10H    basis set group =>   2
Atom  11H    basis set group =>   2
Atom  12C    basis set group =>   1
Atom  13C    basis set group =>   1
Atom  14C    basis set group =>   1
Atom  15C    basis set group =>   1
Atom  16C    basis set group =>   1
Atom  17C    basis set group =>   1
Atom  18H    basis set group =>   2
Atom  19H    basis set group =>   2
Atom  20H    basis set group =>   2
Atom  21H    basis set group =>   2
Atom  22H    basis set group =>   2
Atom  23H    basis set group =>   2
---------------------------------
AUXILIARY/J BASIS SET INFORMATION
---------------------------------
There are 2 groups of distinct atoms

 Group   1 Type C   : 8s3p3d contracted to 6s3p3d pattern {311111/111/111}
 Group   2 Type H   : 5s2p contracted to 3s1p pattern {311/2}

Atom   0C    basis set group =>   1
Atom   1C    basis set group =>   1
Atom   2C    basis set group =>   1
Atom   3C    basis set group =>   1
Atom   4C    basis set group =>   1
Atom   5C    basis set group =>   1
Atom   6H    basis set group =>   2
Atom   7H    basis set group =>   2
Atom   8H    basis set group =>   2
Atom   9H    basis set group =>   2
Atom  10H    basis set group =>   2
Atom  11H    basis set group =>   2
Atom  12C    basis set group =>   1
Atom  13C    basis set group =>   1
Atom  14C    basis set group =>   1
Atom  15C    basis set group =>   1
Atom  16C    basis set group =>   1
Atom  17C    basis set group =>   1
Atom  18H    basis set group =>   2
Atom  19H    basis set group =>   2
Atom  20H    basis set group =>   2
Atom  21H    basis set group =>   2
Atom  22H    basis set group =>   2
Atom  23H    basis set group =>   2


           ************************************************************
           *        Program running with 4 parallel MPI-processes     *
           *              working on a common directory               *
           ************************************************************
------------------------------------------------------------------------------
                             ORCA STARTUP CALCULATIONS
                           -- RI-GTO INTEGRALS CHOSEN --
------------------------------------------------------------------------------
------------------------------------------------------------------------------
                   ___                                                        
                  /   \      - P O W E R E D   B Y -                         
                 /     \                                                     
                 |  |  |   _    _      __       _____    __    __             
                 |  |  |  | |  | |    /  \     |  _  \  |  |  /  |          
                  \  \/   | |  | |   /    \    | | | |  |  | /  /          
                 / \  \   | |__| |  /  /\  \   | |_| |  |  |/  /          
                |  |  |   |  __  | /  /__\  \  |    /   |      \           
                |  |  |   | |  | | |   __   |  |    \   |  |\   \          
                \     /   | |  | | |  |  |  |  | |\  \  |  | \   \       
                 \___/    |_|  |_| |__|  |__|  |_| \__\ |__|  \__/        
                                                                              
                      - O R C A' S   B I G   F R I E N D -                    
                                      &                                       
                       - I N T E G R A L  F E E D E R -                       
                                                                              
 v1 FN, 2020, v2 2021, v3 2022-2024                                           
------------------------------------------------------------------------------


----------------------
SHARK INTEGRAL PACKAGE
----------------------

Number of atoms                             ...     24
Number of basis functions                   ...    264
Number of shells                            ...    144
Maximum angular momentum                    ...      2
Integral batch strategy                     ... SHARK/LIBINT Hybrid
RI-J (if used) integral strategy            ... SPLIT-RIJ (Revised 2003 algorithm where possible)
Printlevel                                  ...      1
Contraction scheme used                     ... SEGMENTED contraction
Prescreening option                         ... SCHWARTZ
   Thresh                                   ... 2.500e-11
   Tcut                                     ... 2.500e-12
   Tpresel                                  ... 2.500e-12 
Coulomb Range Separation                    ... NOT USED
Exchange Range Separation                   ... NOT USED
Multipole approximations                    ... NOT USED
Finite Nucleus Model                        ... NOT USED
CABS basis                                  ... NOT available
Auxiliary Coulomb fitting basis             ... AVAILABLE
   # of basis functions in Aux-J            ...    432
   # of shells in Aux-J                     ...    192
   Maximum angular momentum in Aux-J        ...      2
Auxiliary J/K fitting basis                 ... NOT available
Auxiliary Correlation fitting basis         ... NOT available
Auxiliary 'external' fitting basis          ... NOT available

Checking pre-screening integrals            ... done (  0.0 sec) Dimension = 144
   => SHARK Basis and OBASIS are compatible. Storing Pre-screening
Shell pair information
Shell pair cut-off parameter TPreSel        ...   2.5e-12
Total number of shell pairs                 ...     10440
Shell pairs after pre-screening             ...      9144
Total number of primitive shell pairs       ...     38526
Primitive shell pairs kept                  ...     22686
          la=0 lb=0:   3874 shell pairs
          la=1 lb=0:   3200 shell pairs
          la=1 lb=1:    652 shell pairs
          la=2 lb=0:    936 shell pairs
          la=2 lb=1:    412 shell pairs
          la=2 lb=2:     70 shell pairs

Checking whether 4 symmetric matrices of dimension 264 fit in memory
:Max Core in MB      =   2500.00
 MB in use           =     12.67
 MB left             =   2487.33
 MB needed           =      1.07
 Data fit in memory  = YES
Calculating RI/J V-Matrix + Cholesky decomp.... done (  0.0 sec)
Calculating Nuclear repulsion               ... done (  0.0 sec) ENN=    619.147989521342 Eh

Diagonalization of the overlap matrix:
Smallest eigenvalue                        ... 1.020e-05
Time for diagonalization                   ...    0.005 sec
Threshold for overlap eigenvalues          ... 1.000e-07
Number of eigenvalues below threshold      ... 0
Time for construction of square roots      ...    0.002 sec
Total time needed                          ...    0.008 sec

-------------------
DFT GRID GENERATION
-------------------

General Integration Accuracy     IntAcc      ... 4.388
Radial Grid Type                 RadialGrid  ... OptM3 with GC (2021)
Angular Grid (max. ang.)         AngularGrid ... 4 (Lebedev-302)
Angular grid pruning method      GridPruning ... 4 (adaptive)
Weight generation scheme         WeightScheme... mBecke (2022)
Basis function cutoff            BFCut       ... 1.0000e-11
Integration weight cutoff        WCut        ... 1.0000e-14
Partially contracted basis set               ... off
Rotationally invariant grid construction     ... off
Angular grids for H and He will be reduced by one unit

Total number of grid points                  ...   110232
Total number of batches                      ...     1736
Average number of points per batch           ...       63
Average number of grid points per atom       ...     4593
Grids setup in   0.9 sec
Initializing property integral containers    ... done (  0.0 sec)

SHARK setup successfully completed in   1.0 seconds

Maximum memory used throughout the entire STARTUP-calculation: 34.2 MB


           ************************************************************
           *        Program running with 4 parallel MPI-processes     *
           *              working on a common directory               *
           ************************************************************
-------------------------------------------------------------------------------
                                 ORCA GUESS
                   Start orbitals & Density for SCF / CASSCF
-------------------------------------------------------------------------------

------------
SCF SETTINGS
------------
Hamiltonian:
 Density Functional     Method          .... DFT(GTOs)
 Exchange Functional    Exchange        .... B973C
 Correlation Functional Correlation     .... B973C
 Gradients option       PostSCFGGA      .... off
 RI-approximation to the Coulomb term is turned on
   Number of AuxJ basis functions       .... 432


General Settings:
 Integral files         IntName         .... dimero_PD
 Hartree-Fock type      HFTyp           .... RHF
 Total Charge           Charge          ....    0
 Multiplicity           Mult            ....    1
 Number of Electrons    NEL             ....   84
 Basis Dimension        Dim             ....  264
 Nuclear Repulsion      ENuc            ....    619.1479895213 Eh

Convergence Acceleration:
 AO-DIIS                CNVDIIS         .... on
   Start iteration      DIISMaxIt       ....    12
   Startup error        DIISStart       ....  0.200000
   # of expansion vecs  DIISMaxEq       ....     5
   Bias factor          DIISBfac        ....   1.050
   Max. coefficient     DIISMaxC        ....  10.000
 MO-DIIS                CNVKDIIS        .... off
 Trust-Rad. Augm. Hess. CNVTRAH         .... auto
   Auto Start mean grad. ratio tolernc. ....  1.125000
   Auto Start start iteration           ....    50
   Auto Start num. interpolation iter.  ....    10
   Max. Number of Micro iterations      ....    24
   Max. Number of Macro iterations      .... Maxiter - #DIIS iter
   Number of Davidson start vectors     ....     2
   Converg. threshold    (grad. norm)   ....   1.000e-05
   Grad. Scal. Fac. for Micro threshold ....   0.100
   Minimum threshold for Micro iter.    ....   1.000e-02
   NR start threshold (gradient norm)   ....   1.000e-04
   Initial trust radius                 ....   0.400
   Minimum AH scaling param. (alpha)    ....   1.000
   Maximum AH scaling param. (alpha)    .... 1000.000
   Quad. conv. algorithm                .... NR
   White noise on init. David. guess    .... on
   Maximum white noise                  ....   0.010
   Pseudo random numbers                .... off
   Inactive MOs                         .... canonical
   Orbital update algorithm             .... Taylor
   Preconditioner                       .... Diag
   Full preconditioner red. dimension   ....   250
 SOSCF                 CNVSOSCF           .... on
   Start iteration     SOSCFMaxIt         ....   150
   Startup grad/error  SOSCFStart         ....  0.003300
   Hessian update      SOSCFHessUp        .... L-BFGS
   Autom. constraints  SOSCFAutoConstrain .... off
 Level Shifting         CNVShift        .... on
   Level shift para.    LevelShift      ....    0.2500
   Turn off err/grad.   ShiftErr        ....    0.0010
 Zerner damping         CNVZerner       .... off
 Static damping         CNVDamp         .... on
   Fraction old density DampFac         ....    0.7000
   Max. Damping (<1)    DampMax         ....    0.9800
   Min. Damping (>=0)   DampMin         ....    0.0000
   Turn off err/grad.   DampErr         ....    0.1000

SCF Procedure:
 Maximum # iterations   MaxIter         ....   125
 SCF integral mode      SCFMode         .... Direct
   Integral package                     .... SHARK and LIBINT hybrid scheme
 Reset frequency        DirectResetFreq ....    20
 Integral Threshold     Thresh          ....  2.500e-11 Eh
 Primitive CutOff       TCut            ....  2.500e-12 Eh

Convergence Tolerance:
 Convergence Check Mode ConvCheckMode   .... Total+1el-Energy
 Convergence forced     ConvForced      .... 0
 Energy Change          TolE            ....  1.000e-08 Eh
 1-El. energy change                    ....  1.000e-05 Eh
 Orbital Gradient       TolG            ....  1.000e-05
 Orbital Rotation angle TolX            ....  1.000e-05
 DIIS Error             TolErr          ....  5.000e-07

--------------------------------
INITIAL GUESS: MINIMAL BASIS EHT
--------------------------------
The minimal basis has 72 functions
EHT matrix was diagonalized
Basis set overlap was calculated now projecting the orbitals
Using GuessMode=FMatrix for the initial guess
C*T matrix was formed
Effective Fockian was calculated
Effective Fockian was diagonalized
Initial density was built
                      ------------------
                      INITIAL GUESS DONE
                      ------------------
             **** ENERGY FILE WAS UPDATED (dimero_PD.en.tmp) ****
Finished Guess after   0.2 sec
Maximum memory used throughout the entire GUESS-calculation: 16.9 MB


           ************************************************************
           *        Program running with 4 parallel MPI-processes     *
           *              working on a common directory               *
           ************************************************************

-------------------------------------------------------------------------------------------
                                      ORCA LEAN-SCF
                              memory conserving SCF solver
-------------------------------------------------------------------------------------------

----------------------------------------D-I-I-S--------------------------------------------
Iteration    Energy (Eh)           Delta-E    RMSDP     MaxDP     DIISErr   Damp  Time(sec)
-------------------------------------------------------------------------------------------
               ***  Starting incremental Fock matrix formation  ***
    1    -463.0190501145608550     0.00e+00  6.13e-03  5.41e-02  4.54e-01  0.700   0.9
    2    -463.3441635204454769    -3.25e-01  4.88e-03  3.90e-02  3.20e-01  0.700   0.8
    3    -463.5775117684382849    -2.33e-01  3.86e-03  2.58e-02  2.24e-01  0.700   0.8
                               ***Turning on AO-DIIS***
    4    -463.7417500381467335    -1.64e-01  3.02e-03  1.56e-02  1.56e-01  0.700   0.8
    5    -463.8568786077499908    -1.15e-01  2.09e-03  9.67e-03  1.09e-01  0.700   0.8
    6    -463.9377440071792762    -8.09e-02  1.47e-03  6.62e-03  7.63e-02  0.700   0.8
    7    -463.9944916982937002    -5.67e-02  3.44e-03  1.53e-02  5.35e-02  0.000   0.8
                              *** Initializing SOSCF ***
---------------------------------------S-O-S-C-F--------------------------------------
Iteration    Energy (Eh)           Delta-E    RMSDP     MaxDP     MaxGrad    Time(sec)
--------------------------------------------------------------------------------------
    8    -464.1270881089750446    -1.33e-01  7.90e-04  1.21e-02  1.87e-03     0.8
               *** Restarting incremental Fock matrix formation ***
    9    -464.1271123970935832    -2.43e-05  4.80e-04  7.74e-03  7.54e-04     0.9
   10    -464.1270886765615842     2.37e-05  3.64e-04  5.94e-03  1.01e-03     0.7
   11    -464.1271352058105322    -4.65e-05  2.84e-05  1.75e-04  1.08e-04     0.8
   12    -464.1271339961207332     1.21e-06  1.96e-05  1.29e-04  2.61e-04     0.7
   13    -464.1271354457775260    -1.45e-06  4.06e-06  4.68e-05  4.81e-06     0.6
   14    -464.1271354457727512     4.77e-12  1.73e-06  2.09e-05  8.86e-06     0.6
                 **** Energy Check signals convergence ****

               *****************************************************
               *                     SUCCESS                       *
               *           SCF CONVERGED AFTER  14 CYCLES          *
               *****************************************************

             **** ENERGY FILE WAS UPDATED (dimero_PD.en.tmp) ****

----------------
TOTAL SCF ENERGY
----------------

Total Energy       :       -464.12713544293626 Eh          -12629.54143 eV

Components:
Nuclear Repulsion  :        619.14798952134163 Eh           16847.87332 eV
Electronic Energy  :      -1083.27512496427789 Eh          -29477.41475 eV
One Electron Energy:      -1853.54427731483702 Eh          -50437.50398 eV
Two Electron Energy:        770.26915235055912 Eh           20960.08923 eV

Virial components:
Potential Energy   :       -926.25193109058227 Eh          -25204.59642 eV
Kinetic Energy     :        462.12479564764607 Eh           12575.05499 eV
Virial Ratio       :          2.00433289841651

DFT components:
N(Alpha)           :       42.000049827996 electrons
N(Beta)            :       42.000049827996 electrons
N(Total)           :       84.000099655993 electrons
E(XC)              :      -69.129268471020 Eh       

---------------
SCF CONVERGENCE
---------------

  Last Energy change         ...   -4.7748e-12  Tolerance :   1.0000e-08
  Last MAX-Density change    ...    2.0931e-05  Tolerance :   1.0000e-07
  Last RMS-Density change    ...    1.7306e-06  Tolerance :   5.0000e-09
  Last DIIS Error            ...    1.8723e-03  Tolerance :   5.0000e-07
  Last Orbital Gradient      ...    8.8571e-06  Tolerance :   1.0000e-05
  Last Orbital Rotation      ...    1.2340e-05  Tolerance :   1.0000e-05


----------------
ORBITAL ENERGIES
----------------

  NO   OCC          E(Eh)            E(eV) 
   0   2.0000      -9.892078      -269.1771 
   1   2.0000      -9.892073      -269.1770 
   2   2.0000      -9.891778      -269.1690 
   3   2.0000      -9.891774      -269.1689 
   4   2.0000      -9.891469      -269.1605 
   5   2.0000      -9.891460      -269.1603 
   6   2.0000      -9.891381      -269.1582 
   7   2.0000      -9.891374      -269.1580 
   8   2.0000      -9.890852      -269.1438 
   9   2.0000      -9.890847      -269.1436 
  10   2.0000      -9.890497      -269.1341 
  11   2.0000      -9.890494      -269.1340 
  12   2.0000      -0.777376       -21.1535 
  13   2.0000      -0.775382       -21.0992 
  14   2.0000      -0.675790       -18.3892 
  15   2.0000      -0.674815       -18.3626 
  16   2.0000      -0.674517       -18.3545 
  17   2.0000      -0.674058       -18.3421 
  18   2.0000      -0.541851       -14.7445 
  19   2.0000      -0.541758       -14.7420 
  20   2.0000      -0.541554       -14.7364 
  21   2.0000      -0.541448       -14.7336 
  22   2.0000      -0.469657       -12.7800 
  23   2.0000      -0.468783       -12.7562 
  24   2.0000      -0.410379       -11.1670 
  25   2.0000      -0.410335       -11.1658 
  26   2.0000      -0.394571       -10.7368 
  27   2.0000      -0.394412       -10.7325 
  28   2.0000      -0.373371       -10.1599 
  29   2.0000      -0.372636       -10.1399 
  30   2.0000      -0.372462       -10.1352 
  31   2.0000      -0.372391       -10.1333 
  32   2.0000      -0.330800        -9.0015 
  33   2.0000      -0.313385        -8.5276 
  34   2.0000      -0.300571        -8.1789 
  35   2.0000      -0.300275        -8.1709 
  36   2.0000      -0.300186        -8.1685 
  37   2.0000      -0.300178        -8.1683 
  38   2.0000      -0.228904        -6.2288 
  39   2.0000      -0.222120        -6.0442 
  40   2.0000      -0.219810        -5.9813 
  41   2.0000      -0.214328        -5.8322 
  42   0.0000      -0.032775        -0.8919 
  43   0.0000      -0.032436        -0.8826 
  44   0.0000      -0.029115        -0.7923 
  45   0.0000      -0.028574        -0.7775 
  46   0.0000       0.026617         0.7243 
  47   0.0000       0.045845         1.2475 
  48   0.0000       0.059306         1.6138 
  49   0.0000       0.062995         1.7142 
  50   0.0000       0.080555         2.1920 
  51   0.0000       0.082848         2.2544 
  52   0.0000       0.090928         2.4743 
*Only the first 10 virtual orbitals were printed.

                    ********************************
                    * MULLIKEN POPULATION ANALYSIS *
                    ********************************

-----------------------
MULLIKEN ATOMIC CHARGES
-----------------------
   0 C :   -0.168321
   1 C :   -0.117349
   2 C :   -0.117352
   3 C :   -0.168316
   4 C :   -0.165466
   5 C :   -0.165458
   6 H :    0.149970
   7 H :    0.147424
   8 H :    0.147423
   9 H :    0.149969
  10 H :    0.153738
  11 H :    0.153738
  12 C :   -0.168311
  13 C :   -0.165466
  14 C :   -0.165464
  15 C :   -0.168314
  16 C :   -0.117355
  17 C :   -0.117355
  18 H :    0.149972
  19 H :    0.153740
  20 H :    0.153738
  21 H :    0.149972
  22 H :    0.147421
  23 H :    0.147421
Sum of atomic charges:   -0.0000000

--------------------------------
MULLIKEN REDUCED ORBITAL CHARGES
--------------------------------
  0 C s       :     3.138764  s :     3.138764
      pz      :     0.997800  p :     2.988657
      px      :     0.950951
      py      :     1.039907
      dz2     :     0.003926  d :     0.040900
      dxz     :     0.006465
      dyz     :     0.001925
      dx2y2   :     0.016492
      dxy     :     0.012092

  1 C s       :     3.093141  s :     3.093141
      pz      :     0.979881  p :     2.983374
      px      :     1.016242
      py      :     0.987252
      dz2     :     0.003936  d :     0.040834
      dxz     :     0.003091
      dyz     :     0.005262
      dx2y2   :     0.013174
      dxy     :     0.015371

  2 C s       :     3.093145  s :     3.093145
      pz      :     0.979881  p :     2.983373
      px      :     1.016240
      py      :     0.987252
      dz2     :     0.003936  d :     0.040834
      dxz     :     0.003091
      dyz     :     0.005262
      dx2y2   :     0.013174
      dxy     :     0.015371

  3 C s       :     3.138764  s :     3.138764
      pz      :     0.997800  p :     2.988653
      px      :     0.950951
      py      :     1.039902
      dz2     :     0.003926  d :     0.040900
      dxz     :     0.006465
      dyz     :     0.001925
      dx2y2   :     0.016492
      dxy     :     0.012092

  4 C s       :     3.135444  s :     3.135444
      pz      :     0.997305  p :     2.989110
      px      :     1.019645
      py      :     0.972160
      dz2     :     0.003908  d :     0.040911
      dxz     :     0.003062
      dyz     :     0.005380
      dx2y2   :     0.013189
      dxy     :     0.015373

  5 C s       :     3.135436  s :     3.135436
      pz      :     0.997305  p :     2.989110
      px      :     1.019646
      py      :     0.972158
      dz2     :     0.003908  d :     0.040912
      dxz     :     0.003062
      dyz     :     0.005380
      dx2y2   :     0.013189
      dxy     :     0.015373

  6 H s       :     0.850030  s :     0.850030

  7 H s       :     0.852576  s :     0.852576

  8 H s       :     0.852577  s :     0.852577

  9 H s       :     0.850031  s :     0.850031

 10 H s       :     0.846262  s :     0.846262

 11 H s       :     0.846262  s :     0.846262

 12 C s       :     3.138749  s :     3.138749
      pz      :     0.997800  p :     2.988662
      px      :     0.950951
      py      :     1.039911
      dz2     :     0.003926  d :     0.040900
      dxz     :     0.006465
      dyz     :     0.001925
      dx2y2   :     0.016492
      dxy     :     0.012092

 13 C s       :     3.135439  s :     3.135439
      pz      :     0.997305  p :     2.989116
      px      :     1.019652
      py      :     0.972159
      dz2     :     0.003908  d :     0.040911
      dxz     :     0.003062
      dyz     :     0.005380
      dx2y2   :     0.013189
      dxy     :     0.015373

 14 C s       :     3.135442  s :     3.135442
      pz      :     0.997305  p :     2.989110
      px      :     1.019647
      py      :     0.972158
      dz2     :     0.003908  d :     0.040911
      dxz     :     0.003062
      dyz     :     0.005380
      dx2y2   :     0.013189
      dxy     :     0.015373

 15 C s       :     3.138750  s :     3.138750
      pz      :     0.997800  p :     2.988664
      px      :     0.950951
      py      :     1.039914
      dz2     :     0.003926  d :     0.040900
      dxz     :     0.006465
      dyz     :     0.001925
      dx2y2   :     0.016492
      dxy     :     0.012092

 16 C s       :     3.093155  s :     3.093155
      pz      :     0.979881  p :     2.983365
      px      :     1.016238
      py      :     0.987247
      dz2     :     0.003936  d :     0.040834
      dxz     :     0.003091
      dyz     :     0.005262
      dx2y2   :     0.013174
      dxy     :     0.015371

 17 C s       :     3.093154  s :     3.093154
      pz      :     0.979881  p :     2.983367
      px      :     1.016241
      py      :     0.987245
      dz2     :     0.003936  d :     0.040834
      dxz     :     0.003091
      dyz     :     0.005262
      dx2y2   :     0.013174
      dxy     :     0.015371

 18 H s       :     0.850028  s :     0.850028

 19 H s       :     0.846260  s :     0.846260

 20 H s       :     0.846262  s :     0.846262

 21 H s       :     0.850028  s :     0.850028

 22 H s       :     0.852579  s :     0.852579

 23 H s       :     0.852579  s :     0.852579



                     *******************************
                     * LOEWDIN POPULATION ANALYSIS *
                     *******************************

----------------------
LOEWDIN ATOMIC CHARGES
----------------------
   0 C :   -0.163744
   1 C :   -0.155798
   2 C :   -0.155798
   3 C :   -0.163744
   4 C :   -0.167776
   5 C :   -0.167776
   6 H :    0.162004
   7 H :    0.163509
   8 H :    0.163509
   9 H :    0.162004
  10 H :    0.161805
  11 H :    0.161805
  12 C :   -0.163744
  13 C :   -0.167776
  14 C :   -0.167776
  15 C :   -0.163744
  16 C :   -0.155798
  17 C :   -0.155798
  18 H :    0.162004
  19 H :    0.161805
  20 H :    0.161805
  21 H :    0.162004
  22 H :    0.163509
  23 H :    0.163509

-------------------------------
LOEWDIN REDUCED ORBITAL CHARGES
-------------------------------
  0 C s       :     2.908482  s :     2.908482
      pz      :     0.985767  p :     3.175626
      px      :     1.102677
      py      :     1.087182
      dz2     :     0.006217  d :     0.079637
      dxz     :     0.011850
      dyz     :     0.002737
      dx2y2   :     0.032098
      dxy     :     0.026734

  1 C s       :     2.908260  s :     2.908260
      pz      :     0.976674  p :     3.168002
      px      :     1.092000
      py      :     1.099327
      dz2     :     0.006240  d :     0.079536
      dxz     :     0.005070
      dyz     :     0.009438
      dx2y2   :     0.028034
      dxy     :     0.030755

  2 C s       :     2.908260  s :     2.908260
      pz      :     0.976674  p :     3.168002
      px      :     1.092000
      py      :     1.099327
      dz2     :     0.006240  d :     0.079536
      dxz     :     0.005070
      dyz     :     0.009438
      dx2y2   :     0.028034
      dxy     :     0.030755

  3 C s       :     2.908482  s :     2.908482
      pz      :     0.985767  p :     3.175626
      px      :     1.102677
      py      :     1.087182
      dz2     :     0.006217  d :     0.079637
      dxz     :     0.011850
      dyz     :     0.002737
      dx2y2   :     0.032098
      dxy     :     0.026734

  4 C s       :     2.908137  s :     2.908137
      pz      :     0.990134  p :     3.179924
      px      :     1.091186
      py      :     1.098604
      dz2     :     0.006180  d :     0.079716
      dxz     :     0.005027
      dyz     :     0.009707
      dx2y2   :     0.028082
      dxy     :     0.030720

  5 C s       :     2.908136  s :     2.908136
      pz      :     0.990134  p :     3.179924
      px      :     1.091186
      py      :     1.098604
      dz2     :     0.006180  d :     0.079716
      dxz     :     0.005027
      dyz     :     0.009707
      dx2y2   :     0.028082
      dxy     :     0.030720

  6 H s       :     0.837996  s :     0.837996

  7 H s       :     0.836491  s :     0.836491

  8 H s       :     0.836491  s :     0.836491

  9 H s       :     0.837996  s :     0.837996

 10 H s       :     0.838195  s :     0.838195

 11 H s       :     0.838195  s :     0.838195

 12 C s       :     2.908482  s :     2.908482
      pz      :     0.985767  p :     3.175626
      px      :     1.102677
      py      :     1.087182
      dz2     :     0.006217  d :     0.079637
      dxz     :     0.011850
      dyz     :     0.002737
      dx2y2   :     0.032098
      dxy     :     0.026734

 13 C s       :     2.908136  s :     2.908136
      pz      :     0.990134  p :     3.179924
      px      :     1.091186
      py      :     1.098604
      dz2     :     0.006180  d :     0.079716
      dxz     :     0.005027
      dyz     :     0.009707
      dx2y2   :     0.028082
      dxy     :     0.030720

 14 C s       :     2.908136  s :     2.908136
      pz      :     0.990134  p :     3.179924
      px      :     1.091186
      py      :     1.098604
      dz2     :     0.006180  d :     0.079716
      dxz     :     0.005027
      dyz     :     0.009707
      dx2y2   :     0.028082
      dxy     :     0.030720

 15 C s       :     2.908482  s :     2.908482
      pz      :     0.985767  p :     3.175626
      px      :     1.102677
      py      :     1.087182
      dz2     :     0.006217  d :     0.079637
      dxz     :     0.011850
      dyz     :     0.002737
      dx2y2   :     0.032098
      dxy     :     0.026734

 16 C s       :     2.908260  s :     2.908260
      pz      :     0.976674  p :     3.168002
      px      :     1.092000
      py      :     1.099327
      dz2     :     0.006240  d :     0.079536
      dxz     :     0.005070
      dyz     :     0.009438
      dx2y2   :     0.028034
      dxy     :     0.030755

 17 C s       :     2.908260  s :     2.908260
      pz      :     0.976674  p :     3.168002
      px      :     1.092000
      py      :     1.099327
      dz2     :     0.006240  d :     0.079536
      dxz     :     0.005070
      dyz     :     0.009438
      dx2y2   :     0.028034
      dxy     :     0.030755

 18 H s       :     0.837996  s :     0.837996

 19 H s       :     0.838195  s :     0.838195

 20 H s       :     0.838195  s :     0.838195

 21 H s       :     0.837996  s :     0.837996

 22 H s       :     0.836491  s :     0.836491

 23 H s       :     0.836491  s :     0.836491



                      *****************************
                      * MAYER POPULATION ANALYSIS *
                      *****************************

  NA   - Mulliken gross atomic population
  ZA   - Total nuclear charge
  QA   - Mulliken gross atomic charge
  VA   - Mayer's total valence
  BVA  - Mayer's bonded valence
  FA   - Mayer's free valence

  ATOM       NA         ZA         QA         VA         BVA        FA
  0 C      6.1683     6.0000    -0.1683     4.0061     4.0061    -0.0000
  1 C      6.1173     6.0000    -0.1173     4.0036     4.0036    -0.0000
  2 C      6.1174     6.0000    -0.1174     4.0036     4.0036     0.0000
  3 C      6.1683     6.0000    -0.1683     4.0061     4.0061     0.0000
  4 C      6.1655     6.0000    -0.1655     3.9815     3.9815    -0.0000
  5 C      6.1655     6.0000    -0.1655     3.9815     3.9815    -0.0000
  6 H      0.8500     1.0000     0.1500     0.9449     0.9449    -0.0000
  7 H      0.8526     1.0000     0.1474     0.9482     0.9482    -0.0000
  8 H      0.8526     1.0000     0.1474     0.9482     0.9482    -0.0000
  9 H      0.8500     1.0000     0.1500     0.9449     0.9449     0.0000
 10 H      0.8463     1.0000     0.1537     0.9422     0.9422    -0.0000
 11 H      0.8463     1.0000     0.1537     0.9422     0.9422    -0.0000
 12 C      6.1683     6.0000    -0.1683     4.0061     4.0061     0.0000
 13 C      6.1655     6.0000    -0.1655     3.9815     3.9815     0.0000
 14 C      6.1655     6.0000    -0.1655     3.9815     3.9815     0.0000
 15 C      6.1683     6.0000    -0.1683     4.0061     4.0061     0.0000
 16 C      6.1174     6.0000    -0.1174     4.0036     4.0036    -0.0000
 17 C      6.1174     6.0000    -0.1174     4.0036     4.0036     0.0000
 18 H      0.8500     1.0000     0.1500     0.9449     0.9449     0.0000
 19 H      0.8463     1.0000     0.1537     0.9422     0.9422     0.0000
 20 H      0.8463     1.0000     0.1537     0.9422     0.9422    -0.0000
 21 H      0.8500     1.0000     0.1500     0.9449     0.9449     0.0000
 22 H      0.8526     1.0000     0.1474     0.9482     0.9482    -0.0000
 23 H      0.8526     1.0000     0.1474     0.9482     0.9482    -0.0000

  Mayer bond orders larger than 0.100000
B(  0-C ,  1-C ) :   1.4956 B(  0-C ,  5-C ) :   1.4955 B(  0-C ,  6-H ) :   0.9152 
B(  1-C ,  2-C ) :   1.5253 B(  1-C ,  7-H ) :   0.9027 B(  2-C ,  3-C ) :   1.4956 
B(  2-C ,  8-H ) :   0.9027 B(  3-C ,  4-C ) :   1.4955 B(  3-C ,  9-H ) :   0.9152 
B(  4-C ,  5-C ) :   1.4934 B(  4-C , 10-H ) :   0.9146 B(  5-C , 11-H ) :   0.9146 
B( 12-C , 13-C ) :   1.4956 B( 12-C , 17-C ) :   1.4956 B( 12-C , 18-H ) :   0.9152 
B( 13-C , 14-C ) :   1.4934 B( 13-C , 19-H ) :   0.9146 B( 14-C , 15-C ) :   1.4956 
B( 14-C , 20-H ) :   0.9146 B( 15-C , 16-C ) :   1.4956 B( 15-C , 21-H ) :   0.9152 
B( 16-C , 17-C ) :   1.5253 B( 16-C , 22-H ) :   0.9027 B( 17-C , 23-H ) :   0.9027 


-------
TIMINGS
-------

Total SCF time: 0 days 0 hours 0 min 11 sec 

Total time                  ....      11.511 sec
Sum of individual times     ....      10.866 sec  ( 94.4%)

SCF preparation             ....       0.095 sec  (  0.8%)
Fock matrix formation       ....      10.277 sec  ( 89.3%)
  Startup                   ....       0.005 sec  (  0.0% of F)
  Split-RI-J                ....       2.947 sec  ( 28.7% of F)
  XC integration            ....       7.826 sec  ( 76.2% of F)
    XC Preparation          ....       0.000 sec  (  0.0% of XC)
    Basis function eval.    ....       2.207 sec  ( 28.2% of XC)
    Density eval.           ....       2.071 sec  ( 26.5% of XC)
    XC-Functional eval.     ....       0.292 sec  (  3.7% of XC)
    XC-Potential eval.      ....       2.387 sec  ( 30.5% of XC)
Diagonalization             ....       0.000 sec  (  0.0%)
Density matrix formation    ....       0.048 sec  (  0.4%)
Total Energy calculation    ....       0.020 sec  (  0.2%)
Population analysis         ....       0.025 sec  (  0.2%)
Orbital Transformation      ....       0.038 sec  (  0.3%)
Orbital Orthonormalization  ....       0.000 sec  (  0.0%)
DIIS solution               ....       0.234 sec  (  2.0%)
SOSCF solution              ....       0.128 sec  (  1.1%)
Finished LeanSCF after  11.5 sec

Maximum memory used throughout the entire LEANSCF-calculation: 20.4 MB


           ************************************************************
           *        Program running with 4 parallel MPI-processes     *
           *              working on a common directory               *
           ************************************************************

------------------------------------------------------------------------------
                         ORCA PROPERTY INTEGRAL CALCULATIONS
------------------------------------------------------------------------------

GBWName                                   ... dimero_PD.gbw
Number of atoms                           ...     24
Number of basis functions                 ...    264
Max core memory                           ...   2500 MB

Dipole integrals                          ... YES
Quadrupole integrals                      ...  NO
Linear momentum integrals                 ...  NO
Angular momentum integrals                ...  NO
Higher moments length integrals           ...  NO
Higher moments velocity integrals         ...  NO
Kinetic energy integrals                  ...  NO
GIAO right hand sides                     ...  NO
GIAO dipole derivative integrals          ...  NO
SOC integrals                             ...  NO
EPR diamagnetic integrals (GIAO)          ...  NO
EPR gauge integrals                       ...  NO
Field gradient integrals                  ...  NO (   0 nuclei)
Spin-dipole/Fermi contact integrals       ...  NO (   0 nuclei)
Contact density integrals                 ...  NO (   0 nuclei)
Nucleus-orbit integrals                   ...  NO (   0 nuclei)
Geometric perturbations                   ...  NO (  24 nuclei)

Choice of electric origin   ... Center of mass
Position of electric origin ... (  0.0000, -0.0000, -0.0000) 
Choice of magnetic origin   ... GIAO
Position of magnetic origin ... (  0.0000,  0.0000,  0.0000) 

Calculating integrals                     ... Electric Dipole (Length)     done (  0.0 sec)

Property integrals calculated in   0.0 sec

Maximum memory used throughout the entire PROPINT-calculation: 17.4 MB


-------------------------------------------------------------------------------
                          DFT DISPERSION CORRECTION                            
                                                                               
                              DFTD3 V3.1  Rev 1                                
                          USING Becke-Johnson damping                          
-------------------------------------------------------------------------------
The B97-3c composite method is recognized
Using three-body term ABC
Active option DFTDOPT                   ...         4   

molecular C6(AA) [au] = 6637.366093 


            DFT-D V3
 parameters
 s6 scaling factor         :     1.0000 
 a1 scaling factor         :     0.3700 
 s8 scaling factor         :     1.5000 
 a2 scaling factor         :     4.1000 
 Damping factor alpha9(ATM):    16.0000 
 ad hoc parameters k1-k3   :    16.0000     1.3333    -4.0000 

 Edisp/kcal,au: -37.361458186358  -0.059539267127 
 E6   /kcal   : -19.016574990 
 E8   /kcal   : -18.497613874 
 E6(ABC)      :   0.152730678 
 % E8         :  49.509882034 
 % E6(ABC)    :  -0.408792070 

-------------------------   ----------------
Dispersion correction           -0.059539267
-------------------------   ----------------

------------------   -----------------
SRB correction            -0.077821776
------------------   -----------------

-------------------------   --------------------
FINAL SINGLE POINT ENERGY      -464.264496486363
-------------------------   --------------------



           ************************************************************
           *        Program running with 4 parallel MPI-processes     *
           *              working on a common directory               *
           ************************************************************
------------------------------------------------------------------------------
                         ORCA SCF GRADIENT CALCULATION
------------------------------------------------------------------------------

Nuc. rep. gradient        (SHARK) ... done (  0.0 sec)
HCore & Overlap gradient  (SHARK) ... done (  0.3 sec)
Split-RIJ-J gradient      (SHARK) ... done (  0.8 sec)
XC gradient                       ... done (  4.0 sec)
Dispersion correction             ... done (  0.1 sec)

-------------------
DISPERSION GRADIENT
-------------------

   1   C   :   -0.000169133    0.000671648   -0.000698277
   2   C   :    0.000390834    0.000359056   -0.001044426
   3   C   :    0.000390834   -0.000359056   -0.001044426
   4   C   :   -0.000169133   -0.000671648   -0.000698277
   5   C   :   -0.000662616   -0.000312682   -0.000451110
   6   C   :   -0.000662616    0.000312682   -0.000451110
   7   H   :   -0.000035401    0.000441149   -0.000133383
   8   H   :    0.000354119    0.000242999   -0.000304171
   9   H   :    0.000354119   -0.000242999   -0.000304171
  10   H   :   -0.000035401   -0.000441149   -0.000133383
  11   H   :   -0.000373849   -0.000205713   -0.000053769
  12   H   :   -0.000373849    0.000205713   -0.000053769
  13   C   :    0.000169133    0.000671648    0.000698277
  14   C   :    0.000662616    0.000312682    0.000451110
  15   C   :    0.000662616   -0.000312682    0.000451110
  16   C   :    0.000169133   -0.000671648    0.000698277
  17   C   :   -0.000390834   -0.000359056    0.001044426
  18   C   :   -0.000390834    0.000359056    0.001044426
  19   H   :    0.000035401    0.000441149    0.000133383
  20   H   :    0.000373849    0.000205713    0.000053769
  21   H   :    0.000373849   -0.000205713    0.000053769
  22   H   :    0.000035401   -0.000441149    0.000133383
  23   H   :   -0.000354119   -0.000242999    0.000304171
  24   H   :   -0.000354119    0.000242999    0.000304171

Difference to translation invariance:
           :    0.0000000000    0.0000000000   -0.0000000000

Difference to rotation invariance:
           :    0.0000000000   -0.0000000000    0.0000000000

Norm of the Dispersion gradient    ...    0.0038759419
RMS gradient                       ...    0.0004567841
MAX gradient                       ...    0.0010444258
SRB correction                   ... done

------------------
CARTESIAN GRADIENT
------------------

   1   C   :   -0.000042617    0.004078037    0.000277159
   2   C   :    0.003061131    0.002294541    0.000354661
   3   C   :    0.003061132   -0.002294542    0.000354656
   4   C   :   -0.000042621   -0.004078041    0.000277142
   5   C   :   -0.003260377   -0.001445188   -0.000321941
   6   C   :   -0.003260380    0.001445189   -0.000321976
   7   H   :   -0.000027904    0.003300171   -0.000180625
   8   H   :    0.003140820    0.001941031   -0.000561215
   9   H   :    0.003140821   -0.001941031   -0.000561210
  10   H   :   -0.000027904   -0.003300170   -0.000180621
  11   H   :   -0.002759748   -0.001602962    0.000056695
  12   H   :   -0.002759754    0.001602963    0.000056697
  13   C   :    0.000042617    0.004078035   -0.000277100
  14   C   :    0.003260379    0.001445190    0.000321950
  15   C   :    0.003260373   -0.001445187    0.000321916
  16   C   :    0.000042616   -0.004078039   -0.000277092
  17   C   :   -0.003061128   -0.002294542   -0.000354685
  18   C   :   -0.003061127    0.002294543   -0.000354705
  19   H   :    0.000027906    0.003300175    0.000180610
  20   H   :    0.002759750    0.001602962   -0.000056694
  21   H   :    0.002759755   -0.001602962   -0.000056686
  22   H   :    0.000027904   -0.003300173    0.000180609
  23   H   :   -0.003140821   -0.001941029    0.000561225
  24   H   :   -0.003140821    0.001941029    0.000561232

Difference to translation invariance:
           :    0.0000000000    0.0000000000   -0.0000000000

Difference to rotation invariance:
           :   -0.0000000260    0.0000773817    0.0000000002

Norm of the Cartesian gradient     ...    0.0178160944
RMS gradient                       ...    0.0020996469
MAX gradient                       ...    0.0040780412

-------
TIMINGS
-------

Total SCF gradient time     ....        5.143 sec

Densities                   ....       0.001 sec  (  0.0%)
One electron gradient       ....       0.300 sec  (  5.8%)
RI-J Coulomb gradient       ....       0.792 sec  ( 15.4%)
XC gradient                 ....       3.986 sec  ( 77.5%)

Maximum memory used throughout the entire SCFGRAD-calculation: 37.0 MB
------------------------------------------------------------------------------
                         ORCA GEOMETRY RELAXATION STEP
------------------------------------------------------------------------------

Reading the OPT-File                    .... done
Getting information on internals        .... done
Copying old internal coords+grads       .... done
Making the new internal coordinates     .... (2022 redundants) done
Validating the new internal coordinates .... (2022 redundants) done
Calculating the B-matrix                .... done
Calculating the G,G- and P matrices     .... done
Transforming gradient to internals      .... done
Projecting the internal gradient        .... done
Number of atoms                         ....  24
Number of internal coordinates          .... 1130
Current Energy                          ....  -464.264496486 Eh
Current gradient norm                   ....     0.017816094 Eh/bohr
Maximum allowed component of the step   ....  0.300
Current trust radius                    ....  0.300
Evaluating the initial hessian          ....  (Almloef) done
Projecting the Hessian                  .... done
Forming the augmented Hessian           .... done
Diagonalizing the augmented Hessian     .... done
Last element of RFO vector              ....  0.997031236
Lowest eigenvalues of augmented Hessian:
 -0.001281099  0.010807155  0.014020385  0.018179858  0.018338784
Length of the computed step             ....  0.077227409
The final length of the internal step   ....  0.077227409
Converting the step to Cartesian space:
 Initial RMS(Int)=    0.0022973769
Transforming coordinates:
 Iter   0:  RMS(Cart)=    0.0091742468 RMS(Int)=    1.3986633088
done
Storing new coordinates                 .... done

                                .--------------------.
          ----------------------|Geometry convergence|-------------------------
          Item                value                   Tolerance       Converged
          ---------------------------------------------------------------------
          RMS gradient        0.0005579885            0.0001000000      NO
          MAX gradient        0.0034632804            0.0003000000      NO
          RMS step            0.0022973769            0.0020000000      NO
          MAX step            0.0136814965            0.0040000000      NO
          -------------------------------------------------------------------------
          ........................................................
          Max(Bonds)      0.0072      Max(Angles)    0.16
          Max(Dihed)        0.15      Max(Improp)    0.00
          ---------------------------------------------------------------------

The optimization has not yet converged - more geometry cycles are needed


    ---------------------------------------------------------------------------
                         Redundant Internal Coordinates
                            (Angstroem and degrees)

        Definition                    Value    dE/dq     Step     New-Value
    ----------------------------------------------------------------------------
     1. B(C   1,C   0)                1.3952  0.003148 -0.0055    1.3897   
     2. B(C   2,C   1)                1.3952  0.002591 -0.0059    1.3893   
     3. B(C   3,C   2)                1.3952  0.003172 -0.0055    1.3897   
     4. B(C   4,C   3)                1.3952  0.003440 -0.0057    1.3896   
     5. B(C   5,C   4)                1.3952  0.002894 -0.0054    1.3898   
     6. B(C   5,C   0)                1.3952  0.003463 -0.0057    1.3896   
     7. B(H   6,C   0)                1.0871  0.003015 -0.0047    1.0824   
     8. B(H   7,C   1)                1.0871  0.000938 -0.0050    1.0821   
     9. B(H   8,C   2)                1.0871  0.000957 -0.0050    1.0821   
    10. B(H   9,C   3)                1.0871  0.003073 -0.0047    1.0824   
    11. B(H  10,C   4)                1.0871  0.002346 -0.0045    1.0826   
    12. B(H  11,C   5)                1.0871  0.002381 -0.0045    1.0826   
    13. B(C  12,C   5)                4.6188  0.001981 -0.0046    4.6142   
    14. B(C  12,C   0)                3.9395 -0.000515 -0.0003    3.9392   
    15. B(C  12,C   2)                4.1825  0.000877 -0.0032    4.1793   
    16. B(C  12,H   7)                3.6450 -0.001412  0.0007    3.6457   
    17. B(C  12,C   1)                3.6878 -0.001146  0.0008    3.6886   
    18. B(C  12,H   8)                4.4959  0.001534 -0.0060    4.4899   
    19. B(C  12,H   6)                4.0868  0.000156 -0.0013    4.0855   
    20. B(C  13,C  12)                1.3952  0.003403 -0.0056    1.3896   
    21. B(C  13,C   0)                4.6188  0.001992 -0.0046    4.6142   
    22. B(C  13,C   1)                3.9395 -0.000543 -0.0004    3.9392   
    23. B(C  13,C   2)                4.1793  0.000422 -0.0023    4.1771   
    24. B(C  13,H   7)                3.6999 -0.001620  0.0012    3.7011   
    25. B(C  13,H   8)                4.1416 -0.000010 -0.0024    4.1392   
    26. B(C  14,C  13)                1.3952  0.003061 -0.0054    1.3898   
    27. B(C  14,C   3)                4.6188  0.001973 -0.0046    4.6142   
    28. B(C  14,C   2)                3.9395 -0.000525 -0.0004    3.9391   
    29. B(C  14,H   8)                3.6999 -0.001604  0.0012    3.7011   
    30. B(C  14,C   1)                4.1793  0.000458 -0.0023    4.1770   
    31. B(C  14,H   7)                4.1416  0.000018 -0.0024    4.1392   
    32. B(C  15,H   8)                3.6450 -0.001399  0.0007    3.6457   
    33. B(C  15,C   4)                4.6188  0.002029 -0.0046    4.6142   
    34. B(C  15,H   7)                4.4959  0.001563 -0.0060    4.4899   
    35. B(C  15,C   3)                3.9395 -0.000547 -0.0002    3.9393   
    36. B(C  15,C   1)                4.1825  0.000921 -0.0033    4.1793   
    37. B(C  15,C  14)                1.3952  0.003407 -0.0057    1.3896   
    38. B(C  15,H   9)                4.0868  0.000102 -0.0011    4.0857   
    39. B(C  15,C   2)                3.6878 -0.001127  0.0008    3.6886   
    40. B(C  16,H   9)                4.0372  0.000570 -0.0017    4.0355   
    41. B(C  16,C   1)                3.9463  0.000374 -0.0022    3.9441   
    42. B(C  16,C   4)                3.9395 -0.000489 -0.0005    3.9391   
    43. B(C  16,H   7)                4.4508  0.001602 -0.0065    4.4444   
    44. B(C  16,H  10)                4.4401  0.000752 -0.0027    4.4374   
    45. B(C  16,C   0)                4.1825  0.000979 -0.0033    4.1792   
    46. B(C  16,C   5)                4.1793  0.000457 -0.0023    4.1770   
    47. B(C  16,H   8)                4.0431  0.000366 -0.0034    4.0397   
    48. B(C  16,C   2)                3.6915 -0.000631 -0.0001    3.6913   
    49. B(C  16,C   3)                3.6878 -0.001158  0.0008    3.6886   
    50. B(C  16,C  15)                1.3952  0.003143 -0.0055    1.3897   
    51. B(C  17,H   7)                4.0431  0.000343 -0.0034    4.0397   
    52. B(C  17,H   6)                4.0372  0.000613 -0.0019    4.0353   
    53. B(C  17,C   5)                3.9395 -0.000538 -0.0004    3.9391   
    54. B(C  17,C   0)                3.6878 -0.001119  0.0007    3.6886   
    55. B(C  17,H  11)                4.4401  0.000725 -0.0026    4.4375   
    56. B(C  17,C   2)                3.9463  0.000336 -0.0022    3.9441   
    57. B(C  17,H   8)                4.4508  0.001581 -0.0064    4.4444   
    58. B(C  17,C   3)                4.1825  0.000909 -0.0032    4.1793   
    59. B(C  17,C   4)                4.1793  0.000473 -0.0023    4.1770   
    60. B(C  17,C  16)                1.3952  0.002793 -0.0060    1.3893   
    61. B(C  17,C  12)                1.3952  0.003109 -0.0055    1.3897   
    62. B(C  17,C   1)                3.6915 -0.000645 -0.0001    3.6913   
    63. B(H  18,C   1)                4.0372  0.000616 -0.0018    4.0353   
    64. B(H  18,H   6)                3.9395 -0.000820  0.0003    3.9398   
    65. B(H  18,H   7)                3.8474 -0.000085 -0.0007    3.8468   
    66. B(H  18,C  12)                1.0871  0.003013 -0.0047    1.0824   
    67. B(H  18,C   0)                4.0868  0.000161 -0.0013    4.0855   
    68. B(H  19,H   8)                4.6564  0.001344 -0.0044    4.6520   
    69. B(H  19,H   7)                3.9395 -0.001052  0.0012    3.9408   
    70. B(H  19,C   1)                4.4401  0.000749 -0.0026    4.4375   
    71. B(H  19,C  13)                1.0871  0.002386 -0.0045    1.0826   
    72. B(H  20,H   8)                3.9395 -0.001035  0.0012    3.9407   
    73. B(H  20,H   7)                4.6564  0.001365 -0.0045    4.6519   
    74. B(H  20,C  14)                1.0871  0.002359 -0.0045    1.0826   
    75. B(H  20,C   2)                4.4401  0.000765 -0.0027    4.4374   
    76. B(H  21,C   2)                4.0372  0.000627 -0.0018    4.0354   
    77. B(H  21,H   9)                3.9395 -0.000907  0.0006    3.9401   
    78. B(H  21,C  15)                1.0871  0.003019 -0.0047    1.0824   
    79. B(H  21,H   8)                3.8474 -0.000085 -0.0006    3.8468   
    80. B(H  21,C   3)                4.0868  0.000116 -0.0011    4.0856   
    81. B(H  22,C   2)                4.0431  0.000365 -0.0034    4.0397   
    82. B(H  22,C   3)                3.6450 -0.001424  0.0007    3.6457   
    83. B(H  22,H  11)                4.6564  0.001366 -0.0045    4.6519   
    84. B(H  22,H   8)                4.4997  0.001489 -0.0072    4.4925   
    85. B(H  22,C  16)                1.0871  0.000918 -0.0050    1.0821   
    86. B(H  22,H  10)                3.9395 -0.001017  0.0011    3.9407   
    87. B(H  22,C   0)                4.4959  0.001629 -0.0061    4.4898   
    88. B(H  22,C   1)                4.4508  0.001597 -0.0065    4.4444   
    89. B(H  22,H   9)                3.8474 -0.000163 -0.0005    3.8470   
    90. B(H  22,C   4)                3.6999 -0.001547  0.0011    3.7010   
    91. B(H  22,C   5)                4.1416  0.000023 -0.0024    4.1392   
    92. B(H  23,C   0)                3.6450 -0.001357  0.0007    3.6456   
    93. B(H  23,H  11)                3.9395 -0.001035  0.0012    3.9407   
    94. B(H  23,H  10)                4.6564  0.001390 -0.0045    4.6519   
    95. B(H  23,C  17)                1.0871  0.000925 -0.0050    1.0821   
    96. B(H  23,H   7)                4.4997  0.001485 -0.0072    4.4925   
    97. B(H  23,C   3)                4.4959  0.001587 -0.0060    4.4899   
    98. B(H  23,C   2)                4.4508  0.001583 -0.0064    4.4444   
    99. B(H  23,H   6)                3.8474 -0.000086 -0.0007    3.8467   
   100. B(H  23,C   4)                4.1416  0.000067 -0.0025    4.1391   
   101. B(H  23,C   5)                3.6999 -0.001573  0.0012    3.7011   
   102. B(H  23,C   1)                4.0431  0.000374 -0.0034    4.0397   
   103. A(C   1,C   0,C   5)          120.00 -0.000014    0.02    120.02   
   104. A(H   6,C   0,C  13)           98.69  0.000084   -0.02     98.67   
   105. A(C   1,C   0,C  17)           79.25 -0.000081    0.01     79.26   
   106. A(C   5,C   0,C  17)           89.85 -0.000287    0.04     89.89   
   107. A(H   6,C   0,C  12)           90.00 -0.000075    0.02     90.02   
   108. A(C   5,C   0,C  16)           80.26 -0.000399    0.07     80.34   
   109. A(C  12,C   0,C  16)           34.45  0.000675   -0.13     34.33   
   110. A(C  12,C   0,C  13)           16.43  0.000290   -0.05     16.38   
   111. A(C   1,C   0,C  13)           52.98 -0.000545    0.09     53.07   
   112. A(C   1,C   0,H   6)          120.00  0.000076   -0.01    119.99   
   113. A(C   5,C   0,C  13)          116.81  0.000279   -0.04    116.77   
   114. A(C  16,C   0,C  17)           19.12  0.000306   -0.07     19.06   
   115. A(C  13,C   0,C  16)           36.55  0.000678   -0.12     36.43   
   116. A(C  13,C   0,C  17)           31.35  0.000621   -0.10     31.25   
   117. A(H   6,C   0,C  16)          120.03  0.000501   -0.09    119.93   
   118. A(C  12,C   0,C  17)           20.74  0.000472   -0.08     20.66   
   119. A(C   5,C   0,C  12)          110.59  0.000185   -0.04    110.55   
   120. A(C   1,C   0,C  16)           70.65 -0.000211    0.04     70.69   
   121. A(C   5,C   0,H   6)          120.00 -0.000062   -0.01    119.99   
   122. A(C   1,C   0,C  12)           69.41 -0.000255    0.05     69.45   
   123. A(H   6,C   0,C  17)          100.90  0.000195   -0.03    100.88   
   124. A(C  13,C   1,C  14)           19.50  0.000391   -0.07     19.43   
   125. A(C   2,C   1,C  12)          100.90  0.000290   -0.05    100.86   
   126. A(C  14,C   1,C  16)           34.45  0.000740   -0.12     34.33   
   127. A(C   2,C   1,C  13)           90.00  0.000028    0.00     90.00   
   128. A(C   0,C   1,C  16)           89.86 -0.000167    0.03     89.89   
   129. A(C   0,C   1,C  15)          109.35  0.000213   -0.04    109.31   
   130. A(C  13,C   1,C  16)           41.45  0.000918   -0.16     41.29   
   131. A(H   7,C   1,C  14)           80.52 -0.000252    0.02     80.54   
   132. A(H   7,C   1,C  15)           99.74  0.000156   -0.05     99.68   
   133. A(C   0,C   1,C  12)           89.85 -0.000223    0.04     89.89   
   134. A(C   2,C   1,C  17)           90.00  0.000009    0.00     90.00   
   135. A(H   7,C   1,C  16)          110.85  0.000419   -0.09    110.76   
   136. A(C  16,C   1,C  17)           20.70  0.000381   -0.08     20.62   
   137. A(C   0,C   1,C  13)          110.59  0.000293   -0.05    110.55   
   138. A(C   0,C   1,C  14)          119.90  0.000486   -0.08    119.82   
   139. A(H   7,C   1,C  12)           79.25 -0.000205    0.03     79.27   
   140. A(H   7,C   1,C  13)           69.41 -0.000499    0.06     69.47   
   141. A(C   0,C   1,C   2)          120.00  0.000067   -0.01    119.99   
   142. A(C  12,C   1,C  13)           20.74  0.000516   -0.09     20.66   
   143. A(C   2,C   1,H   7)          120.00 -0.000113    0.00    120.00   
   144. A(C  15,C   1,C  16)           19.49  0.000380   -0.06     19.42   
   145. A(C   0,C   1,H   7)          120.00  0.000046    0.00    120.00   
   146. A(C  13,C   1,C  15)           34.45  0.000724   -0.13     34.33   
   147. A(C   2,C   1,C  16)           69.30 -0.000372    0.08     69.38   
   148. A(C  15,C   1,C  17)           35.05  0.000701   -0.13     34.92   
   149. A(C   2,C   1,C  15)           59.97 -0.000582    0.11     60.09   
   150. A(H   7,C   1,C  17)          101.05  0.000298   -0.06    100.98   
   151. A(C  14,C   1,C  17)           40.94  0.000913   -0.16     40.79   
   152. A(C   0,C   1,C  17)           78.95 -0.000427    0.08     79.03   
   153. A(C  14,C   1,C  15)           19.21  0.000408   -0.07     19.14   
   154. A(C  12,C   1,C  15)           40.93  0.000873   -0.16     40.77   
   155. A(C   2,C   1,C  14)           70.50 -0.000363    0.07     70.57   
   156. A(C  12,C   1,C  17)           21.80  0.000503   -0.09     21.71   
   157. A(C  13,C   1,C  17)           36.74  0.000881   -0.15     36.60   
   158. A(C  12,C   1,C  16)           36.71  0.000778   -0.15     36.57   
   159. A(C  12,C   1,C  14)           35.08  0.000785   -0.14     34.94   
   160. A(C   1,C   2,H   8)          120.00 -0.000116    0.00    120.00   
   161. A(C  15,C   2,C  17)           36.71  0.000784   -0.15     36.56   
   162. A(C  15,C   2,C  16)           21.80  0.000507   -0.09     21.71   
   163. A(C   1,C   2,C  12)           59.97 -0.000573    0.11     60.09   
   164. A(C  14,C   2,C  16)           36.74  0.000882   -0.15     36.60   
   165. A(C   1,C   2,C  17)           69.30 -0.000364    0.08     69.37   
   166. A(C  12,C   2,C  13)           19.21  0.000409   -0.07     19.14   
   167. A(C   1,C   2,C  14)           90.00  0.000035    0.00     90.00   
   168. A(C  12,C   2,C  17)           19.49  0.000378   -0.06     19.42   
   169. A(C   3,C   2,C  14)          110.59  0.000269   -0.04    110.55   
   170. A(C   3,C   2,C  16)           78.95 -0.000449    0.08     79.04   
   171. A(H   8,C   2,C  14)           69.41 -0.000499    0.06     69.47   
   172. A(H   8,C   2,C  16)          101.05  0.000299   -0.06    100.98   
   173. A(C  13,C   2,C  14)           19.50  0.000392   -0.07     19.43   
   174. A(C  12,C   2,C  16)           35.05  0.000699   -0.13     34.92   
   175. A(C  14,C   2,C  17)           41.45  0.000922   -0.16     41.29   
   176. A(H   8,C   2,C  15)           79.25 -0.000209    0.03     79.27   
   177. A(C   3,C   2,C  15)           89.85 -0.000247    0.04     89.89   
   178. A(C   3,C   2,C  13)          119.90  0.000464   -0.07    119.82   
   179. A(C   1,C   2,C  13)           70.50 -0.000357    0.07     70.57   
   180. A(C   3,C   2,H   8)          120.00  0.000034    0.00    120.00   
   181. A(C  13,C   2,C  15)           35.08  0.000787   -0.14     34.94   
   182. A(H   8,C   2,C  17)          110.85  0.000422   -0.09    110.76   
   183. A(C  12,C   2,C  15)           40.93  0.000875   -0.16     40.77   
   184. A(C  12,C   2,C  14)           34.45  0.000727   -0.13     34.33   
   185. A(C   3,C   2,C  12)          109.35  0.000194   -0.03    109.31   
   186. A(C   1,C   2,C  16)           90.00  0.000020   -0.00     90.00   
   187. A(H   8,C   2,C  13)           80.52 -0.000249    0.02     80.54   
   188. A(C   1,C   2,C   3)          120.00  0.000081   -0.01    119.99   
   189. A(C   3,C   2,C  17)           89.86 -0.000184    0.03     89.89   
   190. A(C  13,C   2,C  17)           34.45  0.000740   -0.12     34.33   
   191. A(C  16,C   2,C  17)           20.70  0.000383   -0.08     20.62   
   192. A(H   8,C   2,C  12)           99.74  0.000160   -0.05     99.69   
   193. A(C  14,C   2,C  15)           20.74  0.000516   -0.09     20.66   
   194. A(C   1,C   2,C  15)          100.90  0.000302   -0.05    100.86   
   195. A(C  13,C   2,C  16)           40.94  0.000913   -0.16     40.79   
   196. A(C  14,C   3,C  15)           16.43  0.000291   -0.05     16.38   
   197. A(C   2,C   3,C  14)           52.98 -0.000527    0.09     53.07   
   198. A(C   4,C   3,C  16)           89.85 -0.000250    0.03     89.88   
   199. A(C   2,C   3,C  16)           79.25 -0.000063    0.01     79.25   
   200. A(H   9,C   3,C  16)          100.90  0.000178   -0.02    100.88   
   201. A(C  15,C   3,C  17)           34.45  0.000684   -0.13     34.33   
   202. A(C  16,C   3,C  17)           19.12  0.000310   -0.07     19.05   
   203. A(C   4,C   3,C  17)           80.26 -0.000366    0.07     80.33   
   204. A(C   2,C   3,C  17)           70.65 -0.000201    0.03     70.69   
   205. A(C   2,C   3,C   4)          120.00 -0.000023    0.02    120.02   
   206. A(C  15,C   3,C  16)           20.74  0.000479   -0.08     20.66   
   207. A(C  14,C   3,C  17)           36.55  0.000682   -0.12     36.43   
   208. A(C   2,C   3,H   9)          120.00  0.000087   -0.01    119.99   
   209. A(H   9,C   3,C  17)          120.03  0.000488   -0.09    119.94   
   210. A(H   9,C   3,C  15)           90.00 -0.000095    0.02     90.02   
   211. A(C   4,C   3,C  15)          110.59  0.000229   -0.05    110.54   
   212. A(C   2,C   3,C  15)           69.41 -0.000237    0.04     69.45   
   213. A(H   9,C   3,C  14)           98.69  0.000070   -0.01     98.68   
   214. A(C   4,C   3,H   9)          120.00 -0.000065   -0.01    119.99   
   215. A(C   4,C   3,C  14)          116.81  0.000316   -0.05    116.76   
   216. A(C  14,C   3,C  16)           31.35  0.000625   -0.10     31.25   
   217. A(C   3,C   4,H  10)          120.00  0.000121    0.01    120.01   
   218. A(C   3,C   4,C  16)           69.41 -0.000269    0.05     69.46   
   219. A(C   5,C   4,C  17)           70.50 -0.000373    0.07     70.57   
   220. A(C   5,C   4,H  10)          120.00 -0.000066    0.01    120.01   
   221. A(H  10,C   4,C  17)          119.90  0.000077   -0.01    119.89   
   222. A(C   3,C   4,C  17)           80.52 -0.000046   -0.00     80.52   
   223. A(C   3,C   4,C   5)          120.00 -0.000055   -0.02    119.98   
   224. A(H  10,C   4,C  16)          110.59 -0.000046    0.02    110.61   
   225. A(H  10,C   4,C  15)          116.81  0.000020    0.01    116.82   
   226. A(C  15,C   4,C  16)           16.43  0.000251   -0.05     16.38   
   227. A(C   5,C   4,C  15)           98.69  0.000148   -0.03     98.66   
   228. A(C   3,C   4,C  15)           52.98 -0.000520    0.10     53.08   
   229. A(C  16,C   4,C  17)           19.50  0.000354   -0.08     19.43   
   230. A(C   5,C   4,C  16)           90.00 -0.000019   -0.00     90.00   
   231. A(C  15,C   4,C  17)           31.38  0.000547   -0.11     31.27   
   232. A(C  12,C   5,C  16)           31.38  0.000546   -0.11     31.27   
   233. A(C   0,C   5,C   4)          120.00 -0.000057   -0.01    119.99   
   234. A(H  11,C   5,C  17)          110.59 -0.000045    0.02    110.61   
   235. A(C   4,C   5,C  17)           90.00  0.000006   -0.01     89.99   
   236. A(C   0,C   5,C  17)           69.41 -0.000237    0.05     69.45   
   237. A(C  16,C   5,C  17)           19.50  0.000355   -0.08     19.43   
   238. A(H  11,C   5,C  16)          119.90  0.000075   -0.01    119.89   
   239. A(C   4,C   5,C  16)           70.50 -0.000349    0.07     70.57   
   240. A(C   0,C   5,C  16)           80.52 -0.000015   -0.01     80.52   
   241. A(C   4,C   5,H  11)          120.00 -0.000062    0.01    120.01   
   242. A(C   0,C   5,H  11)          120.00  0.000119    0.01    120.01   
   243. A(C  12,C   5,C  17)           16.43  0.000248   -0.04     16.38   
   244. A(H  11,C   5,C  12)          116.81  0.000020    0.00    116.81   
   245. A(C   4,C   5,C  12)           98.69  0.000167   -0.03     98.66   
   246. A(C   0,C   5,C  12)           52.98 -0.000485    0.09     53.07   
   247. A(C   1,C  12,C   2)           19.12  0.000283   -0.07     19.05   
   248. A(C   2,C  12,H  18)          120.03  0.000494   -0.10    119.93   
   249. A(C   2,C  12,C  17)           70.65 -0.000189    0.03     70.69   
   250. A(C   2,C  12,C  13)           80.26 -0.000371    0.07     80.34   
   251. A(C   1,C  12,H  18)          100.90  0.000211   -0.03    100.87   
   252. A(C   1,C  12,C  17)           79.25 -0.000068    0.01     79.26   
   253. A(C  17,C  12,H  18)          120.00  0.000047   -0.01    119.99   
   254. A(C   1,C  12,C  13)           89.85 -0.000271    0.04     89.89   
   255. A(C  13,C  12,H  18)          120.00 -0.000042   -0.01    119.99   
   256. A(C   0,C  12,C   5)           16.43  0.000300   -0.05     16.38   
   257. A(C   0,C  12,C   1)           20.74  0.000478   -0.08     20.66   
   258. A(C   0,C  12,H  18)           90.00 -0.000073    0.02     90.02   
   259. A(C   0,C  12,C  17)           69.41 -0.000245    0.04     69.45   
   260. A(C   0,C  12,C  13)          110.59  0.000207   -0.05    110.55   
   261. A(C  13,C  12,C  17)          120.00 -0.000005    0.02    120.02   
   262. A(C   0,C  12,C   2)           34.45  0.000662   -0.13     34.33   
   263. A(C   2,C  12,C   5)           36.55  0.000675   -0.12     36.43   
   264. A(C   1,C  12,C   5)           31.35  0.000632   -0.10     31.25   
   265. A(C   5,C  12,H  18)           98.69  0.000084   -0.02     98.67   
   266. A(C   5,C  12,C  17)           52.98 -0.000545    0.09     53.07   
   267. A(C   5,C  12,C  13)          116.81  0.000303   -0.04    116.77   
   268. A(C   1,C  13,H  19)          110.59 -0.000030    0.02    110.61   
   269. A(C   1,C  13,C  14)           90.00 -0.000021   -0.01     89.99   
   270. A(C   1,C  13,C  12)           69.41 -0.000245    0.05     69.45   
   271. A(C  14,C  13,H  19)          120.00 -0.000053    0.01    120.01   
   272. A(C  12,C  13,H  19)          120.00  0.000105    0.01    120.01   
   273. A(C   0,C  13,C  14)           98.69  0.000150   -0.03     98.66   
   274. A(C   1,C  13,C   2)           19.50  0.000329   -0.08     19.43   
   275. A(C   2,C  13,H  19)          119.90  0.000085   -0.01    119.89   
   276. A(C   2,C  13,C  14)           70.50 -0.000350    0.07     70.57   
   277. A(C   2,C  13,C  12)           80.52 -0.000038   -0.01     80.52   
   278. A(C  12,C  13,C  14)          120.00 -0.000052   -0.01    119.99   
   279. A(C   0,C  13,C   2)           31.38  0.000528   -0.11     31.27   
   280. A(C   0,C  13,C   1)           16.43  0.000252   -0.04     16.38   
   281. A(C   0,C  13,H  19)          116.81  0.000028    0.01    116.82   
   282. A(C   0,C  13,C  12)           52.98 -0.000498    0.09     53.07   
   283. A(C   1,C  14,C   3)           31.38  0.000534   -0.11     31.27   
   284. A(C   2,C  14,C   3)           16.43  0.000258   -0.05     16.38   
   285. A(C   3,C  14,H  20)          116.81  0.000037    0.00    116.81   
   286. A(C   3,C  14,C  13)           98.69  0.000132   -0.03     98.66   
   287. A(C  15,C  14,H  20)          120.00  0.000100    0.01    120.01   
   288. A(C  13,C  14,H  20)          120.00 -0.000043    0.01    120.01   
   289. A(C   2,C  14,H  20)          110.59 -0.000022    0.02    110.61   
   290. A(C   2,C  14,C  15)           69.41 -0.000245    0.05     69.46   
   291. A(C   2,C  14,C  13)           90.00 -0.000042   -0.00     90.00   
   292. A(C   1,C  14,C   2)           19.50  0.000327   -0.08     19.43   
   293. A(C   1,C  14,H  20)          119.90  0.000089   -0.01    119.89   
   294. A(C   1,C  14,C  15)           80.52 -0.000034   -0.01     80.52   
   295. A(C   1,C  14,C  13)           70.50 -0.000370    0.07     70.57   
   296. A(C  13,C  14,C  15)          120.00 -0.000057   -0.01    119.99   
   297. A(C   3,C  14,C  15)           52.98 -0.000503    0.09     53.07   
   298. A(C  14,C  15,H  21)          120.00 -0.000038   -0.01    119.99   
   299. A(C   1,C  15,C   3)           34.45  0.000666   -0.13     34.33   
   300. A(C   1,C  15,C   2)           19.12  0.000280   -0.07     19.06   
   301. A(C   1,C  15,H  21)          120.03  0.000486   -0.09    119.93   
   302. A(C   1,C  15,C  16)           70.65 -0.000191    0.03     70.69   
   303. A(C   1,C  15,C  14)           80.26 -0.000374    0.07     80.34   
   304. A(C   2,C  15,H  21)          100.90  0.000206   -0.03    100.88   
   305. A(C   2,C  15,C  16)           79.25 -0.000072    0.01     79.26   
   306. A(C   2,C  15,C  14)           89.85 -0.000271    0.04     89.89   
   307. A(C  14,C  15,C  16)          120.00 -0.000016    0.02    120.02   
   308. A(C   2,C  15,C   3)           20.74  0.000483   -0.08     20.66   
   309. A(C   3,C  15,H  21)           90.00 -0.000081    0.02     90.02   
   310. A(C   3,C  15,C  16)           69.41 -0.000248    0.04     69.45   
   311. A(C   3,C  15,C  14)          110.59  0.000212   -0.05    110.55   
   312. A(C   1,C  15,C   4)           36.55  0.000674   -0.12     36.43   
   313. A(C   2,C  15,C   4)           31.35  0.000627   -0.10     31.25   
   314. A(C   4,C  15,C  16)           52.98 -0.000539    0.09     53.07   
   315. A(C   4,C  15,C  14)          116.81  0.000300   -0.04    116.77   
   316. A(C   3,C  15,C   4)           16.43  0.000291   -0.05     16.38   
   317. A(C   4,C  15,H  21)           98.69  0.000076   -0.01     98.67   
   318. A(C  16,C  15,H  21)          120.00  0.000054   -0.01    119.99   
   319. A(C   2,C  16,C   4)           36.74  0.000887   -0.15     36.60   
   320. A(C   3,C  16,C   4)           20.74  0.000519   -0.09     20.66   
   321. A(C   4,C  16,H  22)           69.41 -0.000490    0.06     69.47   
   322. A(C   4,C  16,C  17)           90.00  0.000001    0.00     90.00   
   323. A(C   4,C  16,C  15)          110.59  0.000288   -0.04    110.55   
   324. A(C   3,C  16,H  22)           79.25 -0.000205    0.03     79.27   
   325. A(C   3,C  16,C  17)          100.90  0.000265   -0.05    100.86   
   326. A(C   3,C  16,C  15)           89.85 -0.000231    0.04     89.89   
   327. A(C   0,C  16,C   5)           19.21  0.000414   -0.07     19.14   
   328. A(C   0,C  16,C   1)           19.49  0.000379   -0.06     19.42   
   329. A(C   0,C  16,C   4)           34.45  0.000707   -0.12     34.33   
   330. A(C   0,C  16,C   2)           35.05  0.000672   -0.13     34.92   
   331. A(C   0,C  16,C   3)           40.93  0.000850   -0.16     40.77   
   332. A(C   0,C  16,H  22)           99.74  0.000166   -0.05     99.68   
   333. A(C   0,C  16,C  17)           59.97 -0.000585    0.11     60.09   
   334. A(C   0,C  16,C  15)          109.35  0.000189   -0.03    109.31   
   335. A(C  15,C  16,C  17)          120.00  0.000066   -0.01    119.99   
   336. A(C   1,C  16,C   5)           34.45  0.000748   -0.12     34.33   
   337. A(C   4,C  16,C   5)           19.50  0.000368   -0.07     19.43   
   338. A(C   2,C  16,C   5)           40.94  0.000904   -0.16     40.79   
   339. A(C   3,C  16,C   5)           35.08  0.000768   -0.14     34.94   
   340. A(C   5,C  16,H  22)           80.52 -0.000248    0.02     80.54   
   341. A(C   5,C  16,C  17)           70.50 -0.000367    0.07     70.57   
   342. A(C   5,C  16,C  15)          119.90  0.000469   -0.07    119.82   
   343. A(C   2,C  16,C   3)           21.80  0.000512   -0.09     21.71   
   344. A(C   1,C  16,C   4)           41.45  0.000913   -0.16     41.29   
   345. A(C   2,C  16,H  22)          101.05  0.000308   -0.06    100.98   
   346. A(C   1,C  16,C   2)           20.70  0.000352   -0.08     20.62   
   347. A(C   2,C  16,C  17)           90.00 -0.000025    0.00     90.00   
   348. A(C   1,C  16,C   3)           36.71  0.000764   -0.15     36.56   
   349. A(C   2,C  16,C  15)           78.95 -0.000435    0.08     79.04   
   350. A(C   1,C  16,H  22)          110.85  0.000423   -0.09    110.76   
   351. A(C   1,C  16,C  17)           69.30 -0.000377    0.08     69.38   
   352. A(C   1,C  16,C  15)           89.86 -0.000190    0.03     89.89   
   353. A(C  17,C  16,H  22)          120.00 -0.000091    0.00    120.00   
   354. A(C  15,C  16,H  22)          120.00  0.000024    0.00    120.00   
   355. A(C   3,C  17,C   4)           19.21  0.000412   -0.07     19.14   
   356. A(C   2,C  17,C   3)           19.49  0.000385   -0.06     19.42   
   357. A(C   3,C  17,C   5)           34.45  0.000709   -0.13     34.33   
   358. A(C   1,C  17,C   3)           35.05  0.000683   -0.13     34.91   
   359. A(C   1,C  17,C   5)           36.74  0.000892   -0.15     36.60   
   360. A(C   0,C  17,C   3)           40.93  0.000854   -0.16     40.77   
   361. A(C   3,C  17,H  23)           99.74  0.000178   -0.05     99.68   
   362. A(C   0,C  17,C   5)           20.74  0.000525   -0.09     20.66   
   363. A(C   3,C  17,C  16)           59.97 -0.000575    0.11     60.09   
   364. A(C   3,C  17,C  12)          109.35  0.000196   -0.03    109.31   
   365. A(C   5,C  17,H  23)           69.41 -0.000480    0.06     69.47   
   366. A(C   5,C  17,C  16)           90.00  0.000013    0.00     90.00   
   367. A(C   2,C  17,C   4)           34.45  0.000746   -0.12     34.33   
   368. A(C   5,C  17,C  12)          110.59  0.000297   -0.05    110.55   
   369. A(C  12,C  17,C  16)          120.00  0.000064   -0.00    120.00   
   370. A(C   4,C  17,C   5)           19.50  0.000368   -0.07     19.43   
   371. A(C   1,C  17,C   4)           40.94  0.000907   -0.15     40.79   
   372. A(C   0,C  17,C   4)           35.08  0.000769   -0.14     34.94   
   373. A(C   4,C  17,H  23)           80.52 -0.000234    0.01     80.54   
   374. A(C   4,C  17,C  16)           70.50 -0.000355    0.07     70.57   
   375. A(C   4,C  17,C  12)          119.90  0.000472   -0.07    119.82   
   376. A(C   0,C  17,H  23)           79.25 -0.000190    0.03     79.27   
   377. A(C   0,C  17,C  16)          100.90  0.000280   -0.05    100.86   
   378. A(C   0,C  17,C  12)           89.85 -0.000228    0.04     89.89   
   379. A(C  16,C  17,H  23)          120.00 -0.000089    0.00    120.00   
   380. A(C  12,C  17,H  23)          120.00  0.000025    0.00    120.00   
   381. A(C   2,C  17,C   5)           41.45  0.000913   -0.16     41.29   
   382. A(C   0,C  17,C   1)           21.80  0.000508   -0.09     21.71   
   383. A(C   1,C  17,C   2)           20.70  0.000354   -0.08     20.62   
   384. A(C   1,C  17,H  23)          101.05  0.000318   -0.06    100.98   
   385. A(C   0,C  17,C   2)           36.71  0.000759   -0.15     36.56   
   386. A(C   2,C  17,H  23)          110.85  0.000434   -0.09    110.76   
   387. A(C   1,C  17,C  16)           90.00 -0.000004   -0.00     90.00   
   388. A(C   2,C  17,C  16)           69.30 -0.000359    0.08     69.37   
   389. A(C   2,C  17,C  12)           89.86 -0.000189    0.03     89.89   
   390. A(C   1,C  17,C  12)           78.95 -0.000435    0.08     79.04   
   391. D(C   2,C   1,C   0,C  12)    102.53  0.000214   -0.03    102.50   
   392. D(C  12,C   1,C   0,C   5)   -102.53 -0.000093    0.03   -102.49   
   393. D(C  12,C   1,C   0,C  17)    -19.00 -0.000478    0.08    -18.92   
   394. D(H   7,C   1,C   0,C  12)    -77.47  0.000377   -0.05    -77.52   
   395. D(C   2,C   1,C   0,C   5)      0.00  0.000121    0.00      0.00   
   396. D(C  12,C   1,C   0,C  13)      0.00  0.000054    0.00      0.00   
   397. D(C  17,C   1,C   0,H   6)     96.47  0.000172   -0.03     96.44   
   398. D(H   7,C   1,C   0,C  16)   -114.18 -0.000401    0.09   -114.09   
   399. D(H   7,C   1,C   0,C  17)    -96.47 -0.000101    0.03    -96.44   
   400. D(H   7,C   1,C   0,H   6)      0.00  0.000070    0.00      0.00   
   401. D(C  12,C   1,C   0,C  16)    -36.71 -0.000778    0.15    -36.57   
   402. D(C   2,C   1,C   0,C  16)     65.82 -0.000564    0.11     65.93   
   403. D(H   7,C   1,C   0,C  13)    -77.47  0.000430   -0.05    -77.52   
   404. D(C  17,C   1,C   0,C  12)     19.00  0.000478   -0.08     18.92   
   405. D(C  17,C   1,C   0,C   5)    -83.53  0.000385   -0.05    -83.58   
   406. D(H   7,C   1,C   0,C   5)    180.00  0.000284   -0.02    179.98   
   407. D(C  12,C   1,C   0,H   6)     77.47 -0.000306    0.05     77.53   
   408. D(C   2,C   1,C   0,C  17)     83.53 -0.000264    0.05     83.58   
   409. D(C   2,C   1,C   0,C  13)    102.53  0.000267   -0.03    102.50   
   410. D(C   2,C   1,C   0,H   6)    180.00 -0.000093    0.02    180.02   
   411. D(C  17,C   1,C   0,C  16)    -17.71 -0.000300    0.06    -17.65   
   412. D(C   3,C   2,C   1,C  13)    113.96  0.000359   -0.05    113.91   
   413. D(C  15,C   2,C   1,C  13)     17.75  0.000448   -0.07     17.68   
   414. D(C  15,C   2,C   1,C  16)    -18.99 -0.000432    0.08    -18.91   
   415. D(H   8,C   2,C   1,C  12)    -83.79  0.000083   -0.00    -83.80   
   416. D(C  15,C   2,C   1,C  12)      0.00 -0.000005    0.00      0.00   
   417. D(H   8,C   2,C   1,C   0)    180.00  0.000155   -0.02    179.98   
   418. D(H   8,C   2,C   1,C  16)   -102.78 -0.000344    0.07   -102.71   
   419. D(H   8,C   2,C   1,H   7)      0.00 -0.000008    0.00      0.00   
   420. D(C   3,C   2,C   1,C   0)      0.00 -0.000022    0.00      0.00   
   421. D(H   8,C   2,C   1,C  15)    -83.79  0.000088   -0.00    -83.80   
   422. D(H   8,C   2,C   1,C  17)   -102.78 -0.000345    0.07   -102.71   
   423. D(C   3,C   2,C   1,H   7)    180.00 -0.000185    0.02    180.02   
   424. D(H   8,C   2,C   1,C  14)    -66.04  0.000539   -0.08    -66.11   
   425. D(C   3,C   2,C   1,C  14)    113.96  0.000362   -0.05    113.91   
   426. D(C  16,C   2,C   1,C   0)    -77.22  0.000499   -0.09    -77.31   
   427. D(C   3,C   2,C   1,C  16)     77.22 -0.000521    0.10     77.32   
   428. D(C  15,C   2,C   1,C   0)    -96.21  0.000067   -0.02    -96.22   
   429. D(C   3,C   2,C   1,C  15)     96.21 -0.000089    0.02     96.23   
   430. D(C   3,C   2,C   1,C  17)     77.22 -0.000522    0.10     77.32   
   431. D(C  15,C   2,C   1,C  14)     17.75  0.000450   -0.07     17.68   
   432. D(C  15,C   2,C   1,C  17)    -18.99 -0.000433    0.08    -18.91   
   433. D(H   8,C   2,C   1,C  13)    -66.04  0.000537   -0.08    -66.11   
   434. D(C   3,C   2,C   1,C  12)     96.21 -0.000094    0.02     96.23   
   435. D(C  15,C   2,C   1,H   7)     83.79 -0.000096    0.01     83.80   
   436. D(C   4,C   3,C   2,C  17)     65.82 -0.000628    0.10     65.92   
   437. D(H   9,C   3,C   2,C  16)    -96.47 -0.000160    0.02    -96.45   
   438. D(H   9,C   3,C   2,C  13)    -96.47 -0.000061    0.02    -96.45   
   439. D(C  16,C   3,C   2,H   8)     96.47  0.000092   -0.03     96.44   
   440. D(H   9,C   3,C   2,C  14)    -77.47  0.000377   -0.06    -77.53   
   441. D(H   9,C   3,C   2,C  17)   -114.18 -0.000460    0.09   -114.10   
   442. D(C   4,C   3,C   2,H   8)    180.00 -0.000236    0.01    180.01   
   443. D(H   9,C   3,C   2,H   8)      0.00 -0.000069   -0.01     -0.01   
   444. D(C   4,C   3,C   2,C  13)     83.53 -0.000229    0.03     83.56   
   445. D(C   4,C   3,C   2,C   1)      0.00 -0.000059   -0.01     -0.01   
   446. D(C   4,C   3,C   2,C  12)     65.82 -0.000622    0.10     65.92   
   447. D(C  16,C   3,C   2,C   1)    -83.53  0.000269   -0.05    -83.58   
   448. D(C   4,C   3,C   2,C  14)    102.53  0.000209   -0.04    102.49   
   449. D(C   4,C   3,C   2,C  16)     83.53 -0.000328    0.04     83.57   
   450. D(H   9,C   3,C   2,C   1)    180.00  0.000109   -0.03    179.97   
   451. D(H   9,C   3,C   2,C  12)   -114.18 -0.000455    0.08   -114.10   
   452. D(C   4,C   3,C   2,C  15)    102.53  0.000157   -0.05    102.48   
   453. D(C  16,C   3,C   2,C  17)    -17.71 -0.000300    0.06    -17.65   
   454. D(H   9,C   3,C   2,C  15)    -77.47  0.000324   -0.06    -77.53   
   455. D(C  16,C   3,C   2,C  15)     19.00  0.000485   -0.08     18.92   
   456. D(C  16,C   3,C   2,C  14)     19.00  0.000537   -0.08     18.92   
   457. D(H  10,C   4,C   3,C  15)   -102.53  0.000271   -0.04   -102.57   
   458. D(H  10,C   4,C   3,C  17)   -119.16 -0.000079    0.01   -119.15   
   459. D(H  10,C   4,C   3,C  14)   -119.16 -0.000069    0.02   -119.14   
   460. D(C  16,C   4,C   3,H   9)    102.53  0.000051   -0.01    102.52   
   461. D(H  10,C   4,C   3,H   9)      0.00  0.000273   -0.06     -0.06   
   462. D(H  10,C   4,C   3,C  16)   -102.53  0.000222   -0.05   -102.58   
   463. D(C   5,C   4,C   3,C   2)      0.00  0.000041    0.02      0.02   
   464. D(C   5,C   4,C   3,C  15)     77.47 -0.000128    0.05     77.52   
   465. D(C   5,C   4,C   3,C  16)     77.47 -0.000178    0.04     77.51   
   466. D(C   5,C   4,C   3,C  17)     60.84 -0.000478    0.10     60.94   
   467. D(C  16,C   4,C   3,C  17)    -16.63 -0.000300    0.06    -16.57   
   468. D(C   5,C   4,C   3,H   9)    180.00 -0.000127    0.03    180.03   
   469. D(C  16,C   4,C   3,C   2)    -77.47  0.000219   -0.02    -77.50   
   470. D(C   5,C   4,C   3,C  14)     60.84 -0.000469    0.11     60.95   
   471. D(C  16,C   4,C   3,C  15)     -0.00  0.000049    0.00      0.00   
   472. D(H  10,C   4,C   3,C   2)    180.00  0.000440   -0.07    179.93   
   473. D(H  11,C   5,C   4,C  15)   -127.96 -0.000124    0.02   -127.94   
   474. D(C  17,C   5,C   4,C  16)      0.00  0.000004   -0.00     -0.00   
   475. D(H  11,C   5,C   0,C  17)    102.53 -0.000205    0.04    102.57   
   476. D(C  17,C   5,C   4,H  10)    113.96 -0.000079    0.02    113.99   
   477. D(C  17,C   5,C   4,C  15)    -13.99 -0.000190    0.04    -13.96   
   478. D(H  11,C   5,C   4,H  10)      0.00 -0.000013    0.00      0.00   
   479. D(C   4,C   5,C   0,C   1)      0.00 -0.000139    0.00      0.00   
   480. D(C  17,C   5,C   0,H   6)   -102.53 -0.000049    0.01   -102.52   
   481. D(C   4,C   5,C   0,C  13)    -60.84  0.000404   -0.10    -60.94   
   482. D(C   4,C   5,C   0,C  16)    -60.84  0.000423   -0.09    -60.93   
   483. D(H  11,C   5,C   0,C  16)    119.16  0.000095   -0.01    119.14   
   484. D(C  17,C   5,C   0,C  16)     16.63  0.000299   -0.06     16.57   
   485. D(H  11,C   5,C   0,C  12)    102.53 -0.000256    0.04    102.57   
   486. D(C  17,C   5,C   4,C   3)    -66.04  0.000320   -0.07    -66.10   
   487. D(C   0,C   5,C   4,H  10)    180.00 -0.000341    0.08    180.08   
   488. D(C   0,C   5,C   4,C  15)     52.04 -0.000452    0.09     52.13   
   489. D(C   0,C   5,C   4,C  17)     66.04 -0.000262    0.05     66.09   
   490. D(H  11,C   5,C   4,C   3)    180.00  0.000386   -0.09    179.91   
   491. D(H  11,C   5,C   4,C  17)   -113.96  0.000066   -0.02   -113.98   
   492. D(C   0,C   5,C   4,C   3)      0.00  0.000058   -0.01     -0.01   
   493. D(C  17,C   5,C   0,C   1)     77.47 -0.000262    0.03     77.50   
   494. D(C  17,C   5,C   0,C  12)      0.00 -0.000051   -0.00     -0.00   
   495. D(C   4,C   5,C   0,C  12)    -77.47  0.000073   -0.04    -77.51   
   496. D(H  11,C   5,C   0,C   1)    180.00 -0.000467    0.08    180.08   
   497. D(H  11,C   5,C   0,C  13)    119.16  0.000076   -0.02    119.13   
   498. D(C   0,C   5,C   4,C  16)     66.04 -0.000258    0.05     66.09   
   499. D(C   4,C   5,C   0,H   6)    180.00  0.000075   -0.02    179.98   
   500. D(H  11,C   5,C   4,C  16)   -113.96  0.000070   -0.02   -113.98   
   501. D(H  11,C   5,C   0,H   6)      0.00 -0.000254    0.06      0.06   
   502. D(C   4,C   5,C   0,C  17)    -77.47  0.000124   -0.03    -77.50   
   503. D(H  18,C  12,C   0,C  17)   -122.28 -0.000142    0.02   -122.26   
   504. D(C  17,C  12,C   0,C  13)   -115.43  0.000113   -0.04   -115.47   
   505. D(H  18,C  12,C   0,C   5)   -122.28  0.000002    0.04   -122.25   
   506. D(C  13,C  12,C   0,C   1)     -0.00  0.000151    0.01      0.01   
   507. D(C  13,C  12,C   0,C   5)    115.43  0.000031    0.05    115.48   
   508. D(C  17,C  12,C   0,C   1)   -115.43  0.000264   -0.03   -115.46   
   509. D(C  13,C  12,C   0,C  17)    115.43 -0.000113    0.04    115.47   
   510. D(H  18,C  12,C   0,C   1)    122.28  0.000122   -0.01    122.28   
   511. D(C  17,C  12,C   0,H   6)    122.28  0.000087   -0.01    122.28   
   512. D(C  13,C  12,C   0,H   6)   -122.28 -0.000026    0.03   -122.25   
   513. D(H  18,C  12,C   0,H   6)      0.00 -0.000055    0.02      0.02   
   514. D(C  13,C  12,C   0,C  16)     85.53 -0.000038    0.04     85.57   
   515. D(C  17,C  12,C   0,C  16)    -29.90  0.000074    0.00    -29.90   
   516. D(H  18,C  12,C   2,C  14)    147.39 -0.000221    0.03    147.42   
   517. D(C  13,C  12,C   2,C  15)     60.87  0.000201   -0.01     60.86   
   518. D(C  17,C  12,C   0,C   5)     -0.00  0.000144    0.01      0.01   
   519. D(C  17,C  12,C   5,H  11)     71.30  0.000163   -0.02     71.29   
   520. D(C  13,C  12,C   5,C   4)     49.91 -0.000249    0.07     49.98   
   521. D(C   1,C  12,C   5,C   4)     83.28 -0.000290    0.04     83.32   
   522. D(H  18,C  12,C   5,C  16)   -154.04 -0.000155    0.04   -154.00   
   523. D(C  17,C  12,C   1,C  14)    -91.21 -0.000075    0.00    -91.21   
   524. D(H  18,C  12,C   1,C   0)    -59.42  0.000062    0.00    -59.42   
   525. D(H  18,C  12,C   5,C   4)    180.00 -0.000047    0.02    180.02   
   526. D(C   1,C  12,C   5,C   0)    -37.94 -0.000220    0.06    -37.88   
   527. D(C  17,C  12,C   5,C   4)    -58.78  0.000099   -0.00    -58.79   
   528. D(H  18,C  12,C   1,C  13)    120.58 -0.000080   -0.01    120.57   
   529. D(H  18,C  12,C   1,C  16)   -149.39  0.000044    0.01   -149.38   
   530. D(C  17,C  12,C   5,C   0)    180.00  0.000169    0.01    180.01   
   531. D(C  13,C  12,C   5,C  17)    108.70 -0.000347    0.08    108.77   
   532. D(C  17,C  12,C   2,C  16)    -31.33  0.000082    0.00    -31.33   
   533. D(H  18,C  12,C   1,C  14)    149.99 -0.000092    0.00    149.99   
   534. D(C  13,C  12,C   2,C   3)    126.72  0.000278   -0.03    126.69   
   535. D(C  13,C  12,C   5,C   0)    -71.30 -0.000179    0.09    -71.21   
   536. D(H  18,C  12,C   2,C  17)   -114.15  0.000097   -0.02   -114.17   
   537. D(H  18,C  12,C   2,C  16)   -145.48  0.000180   -0.02   -145.50   
   538. D(H  18,C  12,C   2,C  15)    180.00  0.000004    0.00    180.00   
   539. D(H  18,C  12,C   2,C   3)   -114.15  0.000081   -0.02   -114.17   
   540. D(C  17,C  12,C   2,C   1)    114.15 -0.000086    0.03    114.18   
   541. D(H  18,C  12,C   2,H   8)    119.13 -0.000141    0.02    119.15   
   542. D(C  13,C  12,C   1,C  16)     90.03  0.000124    0.01     90.05   
   543. D(C  17,C  12,C   2,C  15)    -65.85 -0.000093    0.03    -65.82   
   544. D(C  13,C  12,C   1,C  14)     29.41 -0.000012    0.01     29.42   
   545. D(C  17,C  12,C   2,C   3)      0.00 -0.000016    0.00      0.00   
   546. D(C  17,C  12,C   1,C   0)     59.37  0.000079   -0.00     59.37   
   547. D(C  13,C  12,C   5,C  16)     75.88 -0.000357    0.09     75.97   
   548. D(C  13,C  12,C   2,C   1)   -119.13  0.000209   -0.01   -119.14   
   549. D(H  18,C  12,C   1,C   2)    180.00  0.000010    0.00    180.00   
   550. D(C  17,C  12,C   2,C  14)    -98.46 -0.000319    0.05    -98.41   
   551. D(C  17,C  12,C   1,C  15)    -61.20  0.000020    0.00    -61.20   
   552. D(H  18,C  12,C   5,C  17)   -121.22 -0.000145    0.02   -121.20   
   553. D(C  17,C  12,C   1,C  16)    -30.59  0.000061    0.00    -30.59   
   554. D(C  17,C  12,C   2,C  13)   -126.72 -0.000294    0.04   -126.68   
   555. D(H  18,C  12,C   2,C   1)      0.00  0.000012    0.00      0.00   
   556. D(C  13,C  12,C   2,C  17)    126.72  0.000294   -0.04    126.68   
   557. D(C   1,C  12,C   0,H   6)   -122.28 -0.000177    0.03   -122.26   
   558. D(C  13,C  12,C   1,C   0)    180.00  0.000142    0.01    180.01   
   559. D(C  13,C  12,C   2,H   8)     -0.00  0.000056    0.01      0.01   
   560. D(C  13,C  12,C   1,H   7)    -59.37  0.000262   -0.00    -59.38   
   561. D(C  13,C  12,C   1,C  15)     59.42  0.000083    0.01     59.43   
   562. D(C  17,C  12,C   1,H   7)   -180.00  0.000199   -0.01   -180.01   
   563. D(H  18,C  12,C   0,C  16)   -152.18 -0.000068    0.03   -152.16   
   564. D(C  13,C  12,C   5,H  11)    180.00 -0.000184    0.06    180.06   
   565. D(C  13,C  12,C   2,C  14)     28.26 -0.000024    0.01     28.27   
   566. D(C  13,C  12,C   1,C  17)    120.63  0.000063    0.01    120.63   
   567. D(C  13,C  12,C   2,C  16)     95.39  0.000377   -0.04     95.35   
   568. D(H  18,C  12,C   1,C  17)   -118.80 -0.000017    0.00   -118.80   
   569. D(H  18,C  12,C   1,H   7)     61.20  0.000182   -0.01     61.19   
   570. D(C  17,C  12,C   5,C  16)    -32.82 -0.000009    0.02    -32.80   
   571. D(H  18,C  12,C   5,H  11)    -49.91  0.000018    0.00    -49.91   
   572. D(H  18,C  12,C   5,C   0)     58.78  0.000023    0.03     58.82   
   573. D(C  13,C  12,C   1,C   2)     59.42  0.000090    0.01     59.43   
   574. D(C  17,C  12,C   1,C   2)    -61.20  0.000027    0.00    -61.20   
   575. D(C  17,C  12,C   2,H   8)   -126.72 -0.000239    0.04   -126.68   
   576. D(C  17,C  12,C   1,C  13)   -120.63 -0.000063   -0.01   -120.63   
   577. D(C   1,C  12,C   0,C   5)    115.43 -0.000120    0.04    115.47   
   578. D(H  18,C  12,C   0,C  13)    122.28 -0.000029   -0.02    122.27   
   579. D(C   1,C  13,C  12,C  17)     77.47 -0.000239    0.03     77.50   
   580. D(H  19,C  13,C  12,C   0)    102.53 -0.000241    0.04    102.57   
   581. D(C  14,C  13,C   1,H   7)   -122.28  0.000024    0.01   -122.27   
   582. D(C  14,C  13,C  12,C   5)    -60.84  0.000457   -0.10    -60.94   
   583. D(H  19,C  13,C   1,C   0)   -115.43  0.000087   -0.01   -115.44   
   584. D(C  14,C  13,C  12,H  18)    180.00  0.000085   -0.02    179.98   
   585. D(H  19,C  13,C   1,C  17)   -147.72 -0.000090    0.01   -147.71   
   586. D(H  19,C  13,C   2,C  15)    145.49 -0.000096    0.03    145.53   
   587. D(H  19,C  13,C   2,H   8)     60.74 -0.000056    0.01     60.75   
   588. D(C  14,C  13,C   2,C  17)     98.44  0.000250   -0.06     98.38   
   589. D(C  12,C  13,C   2,C  15)    -95.25  0.000016    0.04    -95.21   
   590. D(C  14,C  13,C   2,C  16)     65.91  0.000290   -0.04     65.87   
   591. D(C  14,C  13,C   2,C   3)     65.91  0.000141   -0.03     65.87   
   592. D(C  12,C  13,C   2,C  17)    -28.21  0.000124   -0.01    -28.22   
   593. D(C  14,C  13,C   2,C  15)     31.40  0.000142   -0.01     31.39   
   594. D(C  14,C  13,C   2,H   8)    -53.35  0.000181   -0.04    -53.39   
   595. D(C  14,C  13,C   2,C  12)    126.65  0.000126   -0.05    126.60   
   596. D(C  12,C  13,C   2,H   8)    180.00  0.000056    0.01    180.01   
   597. D(C  12,C  13,C   2,C   3)    -60.74  0.000016    0.01    -60.73   
   598. D(C  12,C  13,C   2,C   1)     53.35 -0.000119    0.05     53.40   
   599. D(C  14,C  13,C  12,C  17)      0.00 -0.000074   -0.00     -0.00   
   600. D(H  19,C  13,C   1,H   7)     -0.00 -0.000051    0.02      0.02   
   601. D(H  19,C  13,C   1,C   2)    122.28 -0.000068    0.01    122.30   
   602. D(C  14,C  13,C   1,C  15)     27.82  0.000010    0.02     27.83   
   603. D(C  14,C  13,C   1,C  16)     57.72  0.000004    0.02     57.73   
   604. D(C  14,C  13,C   1,C  17)     90.00 -0.000015   -0.00     90.00   
   605. D(H  19,C  13,C  12,C  17)    180.00 -0.000426    0.08    180.08   
   606. D(C  14,C  13,C  12,C   0)    -77.47  0.000112   -0.03    -77.51   
   607. D(C  14,C  13,C   1,C  12)    122.28  0.000010   -0.02    122.26   
   608. D(C  14,C  13,C  12,C   2)    -60.84  0.000444   -0.09    -60.94   
   609. D(H  19,C  13,C  12,C   2)    119.16  0.000091   -0.01    119.14   
   610. D(C  14,C  13,C  12,C   1)    -77.47  0.000165   -0.03    -77.50   
   611. D(H  19,C  13,C   1,C  12)   -115.43 -0.000064   -0.01   -115.44   
   612. D(H  19,C  13,C   2,C  16)    180.00  0.000052    0.00    180.00   
   613. D(H  19,C  13,C  12,C   1)    102.53 -0.000187    0.05    102.57   
   614. D(C  14,C  13,C   1,C   2)      0.00  0.000006    0.00      0.00   
   615. D(C  14,C  13,C   1,C   0)    122.28  0.000162   -0.02    122.27   
   616. D(H  19,C  13,C  12,C   5)    119.16  0.000104   -0.02    119.14   
   617. D(C  12,C  13,C   2,C  16)    -60.74  0.000164    0.01    -60.73   
   618. D(C  12,C  13,C   2,C  14)   -126.65 -0.000126    0.05   -126.60   
   619. D(C  12,C  13,C   1,C  15)    -94.47  0.000000    0.04    -94.43   
   620. D(C  14,C  13,C   2,C   1)    180.00  0.000007    0.00    180.00   
   621. D(C  12,C  13,C   1,C  14)   -122.28 -0.000010    0.02   -122.26   
   622. D(H  19,C  13,C  12,H  18)      0.00 -0.000267    0.06      0.06   
   623. D(C  12,C  13,C   1,C  17)    -32.28 -0.000026    0.02    -32.27   
   624. D(H  19,C  13,C   0,C  12)   -108.70  0.000021   -0.03   -108.73   
   625. D(H  19,C  13,C   0,C   1)     71.30  0.000199   -0.02     71.28   
   626. D(H  19,C  13,C   2,C   1)    -65.91 -0.000231    0.04    -65.86   
   627. D(C  14,C  13,C   0,H   6)    180.00 -0.000053    0.01    180.01   
   628. D(C  14,C  13,C   0,C   1)    -58.78  0.000131   -0.01    -58.79   
   629. D(C  12,C  13,C   0,C  16)    -71.30 -0.000198    0.08    -71.23   
   630. D(C  12,C  13,C   0,C  17)    -37.94 -0.000220    0.06    -37.88   
   631. D(H  19,C  13,C   2,C   3)    180.00 -0.000096    0.01    180.01   
   632. D(C  12,C  13,C   0,H   6)     58.78 -0.000006    0.03     58.82   
   633. D(C  12,C  13,C   0,C   5)    -71.30 -0.000167    0.09    -71.21   
   634. D(C  12,C  13,C   0,C   1)    180.00  0.000177    0.01    180.01   
   635. D(C  14,C  13,C   0,C  17)     83.28 -0.000266    0.04     83.32   
   636. D(C  14,C  13,C   0,C   5)     49.91 -0.000213    0.07     49.99   
   637. D(H  19,C  13,C   0,H   6)    -49.91  0.000015    0.00    -49.91   
   638. D(C  14,C  13,C   0,C  16)     49.91 -0.000244    0.06     49.97   
   639. D(C  12,C  13,C   1,C  16)    -64.57 -0.000006    0.04    -64.53   
   640. D(H  19,C  13,C   0,C  17)   -146.63 -0.000198    0.03   -146.61   
   641. D(C  12,C  13,C   1,C   0)     -0.00  0.000151    0.01      0.01   
   642. D(C  12,C  13,C   1,C   2)   -122.28 -0.000004    0.02   -122.26   
   643. D(C  12,C  13,C   1,H   7)    115.43  0.000013    0.04    115.47   
   644. D(C  14,C  13,C   0,C  12)    121.22 -0.000047   -0.02    121.20   
   645. D(C   1,C  13,C  12,C   2)     16.63  0.000279   -0.06     16.57   
   646. D(C   1,C  13,C  12,C   0)      0.00 -0.000054   -0.00     -0.00   
   647. D(C   1,C  13,C  12,H  18)   -102.53 -0.000080    0.01   -102.52   
   648. D(H  19,C  13,C   0,C   5)    180.00 -0.000146    0.06    180.06   
   649. D(H  20,C  14,C   2,C  15)    115.43  0.000057    0.01    115.44   
   650. D(C  13,C  14,C   3,C   4)    -49.91  0.000237   -0.07    -49.99   
   651. D(C  15,C  14,C   3,C  17)     71.30  0.000215   -0.08     71.22   
   652. D(H  20,C  14,C   3,C  16)    146.63  0.000199   -0.03    146.61   
   653. D(C  15,C  14,C  13,C   0)    -52.04  0.000493   -0.10    -52.14   
   654. D(C   2,C  14,C  13,C  12)     66.04 -0.000292    0.06     66.09   
   655. D(C   2,C  14,C  13,H  19)   -113.96  0.000060   -0.02   -113.98   
   656. D(C   2,C  14,C  13,C   0)     13.99  0.000191   -0.04     13.96   
   657. D(H  20,C  14,C  13,C   0)    127.96  0.000127   -0.02    127.94   
   658. D(C   2,C  14,C  13,C   1)      0.00 -0.000002   -0.00     -0.00   
   659. D(H  20,C  14,C  13,C   2)    113.96 -0.000064    0.02    113.98   
   660. D(H  20,C  14,C  13,C   1)    113.96 -0.000066    0.02    113.98   
   661. D(H  20,C  14,C  13,C  12)    180.00 -0.000356    0.08    180.08   
   662. D(C  15,C  14,C  13,C   2)    -66.04  0.000302   -0.06    -66.10   
   663. D(C  15,C  14,C  13,H  19)    180.00  0.000362   -0.08    179.92   
   664. D(C  15,C  14,C  13,C  12)      0.00  0.000009   -0.00     -0.00   
   665. D(H  20,C  14,C   3,C  15)    108.70 -0.000035    0.03    108.73   
   666. D(H  20,C  14,C   3,H   9)     49.91 -0.000005   -0.01     49.91   
   667. D(H  20,C  14,C   3,C   4)   -180.00  0.000165   -0.06   -180.06   
   668. D(H  20,C  14,C   3,C   2)    -71.30 -0.000208    0.02    -71.28   
   669. D(C  15,C  14,C   3,C  16)     37.94  0.000234   -0.06     37.88   
   670. D(C  15,C  14,C   3,H   9)    -58.78  0.000030   -0.04    -58.82   
   671. D(C  15,C  14,C   3,C   4)     71.30  0.000200   -0.10     71.21   
   672. D(C  13,C  14,C   3,C  17)    -49.91  0.000253   -0.06    -49.97   
   673. D(C  13,C  14,C   3,C  15)   -121.22  0.000038    0.02   -121.20   
   674. D(C  13,C  14,C   3,C  16)    -83.28  0.000271   -0.04    -83.32   
   675. D(C  13,C  14,C   3,H   9)    180.00  0.000068   -0.02    179.98   
   676. D(C  13,C  14,C   3,C   2)     58.78 -0.000136    0.01     58.79   
   677. D(H  20,C  14,C   2,C  16)    147.72  0.000092   -0.01    147.71   
   678. D(H  20,C  14,C   2,H   8)      0.00  0.000053   -0.02     -0.02   
   679. D(H  20,C  14,C   2,C   3)    115.43 -0.000092    0.01    115.44   
   680. D(H  20,C  14,C   2,C   1)   -122.28  0.000077   -0.01   -122.30   
   681. D(C  15,C  14,C   2,C  12)     94.47  0.000003   -0.04     94.43   
   682. D(C  15,C  14,C   2,C  13)    122.28  0.000014   -0.03    122.26   
   683. D(C  15,C  14,C   2,C  17)     64.57  0.000017   -0.04     64.53   
   684. D(C  15,C  14,C   2,C  16)     32.28  0.000035   -0.02     32.26   
   685. D(C  15,C  14,C   2,H   8)   -115.43 -0.000003   -0.04   -115.47   
   686. D(C  15,C  14,C   2,C   3)      0.00 -0.000148   -0.01     -0.01   
   687. D(C  15,C  14,C   2,C   1)    122.28  0.000021   -0.03    122.26   
   688. D(C  13,C  14,C   2,C  12)    -27.82 -0.000011   -0.01    -27.83   
   689. D(C  13,C  14,C   2,C  16)    -90.00  0.000021    0.01    -89.99   
   690. D(C  13,C  14,C   2,H   8)    122.28 -0.000018   -0.01    122.27   
   691. D(C  13,C  14,C   1,C  17)    -65.91 -0.000286    0.04    -65.87   
   692. D(C  15,C  14,C   3,C   2)   -180.00 -0.000174   -0.01   -180.01   
   693. D(H  20,C  14,C   1,C  12)   -145.49  0.000090   -0.03   -145.53   
   694. D(C  15,C  14,C   1,C   2)    -53.35  0.000134   -0.05    -53.40   
   695. D(H  20,C  14,C   1,C   0)   -180.00  0.000086   -0.01   -180.01   
   696. D(C  15,C  14,C   1,C  16)     28.21 -0.000115    0.01     28.22   
   697. D(C  15,C  14,C   1,C  17)     60.74 -0.000159   -0.01     60.73   
   698. D(C  15,C  14,C   1,C  12)     95.25 -0.000019   -0.04     95.21   
   699. D(C  15,C  14,C   1,H   7)   -180.00 -0.000049   -0.01   -180.01   
   700. D(C  15,C  14,C   1,C  13)    126.65  0.000127   -0.05    126.60   
   701. D(H  20,C  14,C   1,C   2)     65.91  0.000242   -0.04     65.86   
   702. D(C  15,C  14,C   1,C   0)     60.74 -0.000023   -0.01     60.73   
   703. D(H  20,C  14,C   1,H   7)    -60.74  0.000060   -0.01    -60.75   
   704. D(C  15,C  14,C  13,C   1)    -66.04  0.000299   -0.06    -66.10   
   705. D(C  13,C  14,C   1,C  15)   -126.65 -0.000127    0.05   -126.60   
   706. D(C  13,C  14,C   1,C  16)    -98.44 -0.000242    0.06    -98.38   
   707. D(C  13,C  14,C   2,C   3)   -122.28 -0.000162    0.02   -122.27   
   708. D(H  20,C  14,C  13,H  19)      0.00 -0.000004   -0.00     -0.00   
   709. D(C  13,C  14,C   1,C  12)    -31.40 -0.000146    0.01    -31.39   
   710. D(C  13,C  14,C   1,H   7)     53.35 -0.000176    0.04     53.39   
   711. D(C  13,C  14,C   1,C   2)    180.00  0.000007    0.00    180.00   
   712. D(C  13,C  14,C   2,C  15)   -122.28 -0.000014    0.03   -122.26   
   713. D(C  13,C  14,C   2,C   1)      0.00  0.000006    0.00      0.00   
   714. D(C  13,C  14,C   1,C   0)    -65.91 -0.000150    0.04    -65.87   
   715. D(C  13,C  14,C   2,C  17)    -57.72  0.000002   -0.02    -57.73   
   716. D(H  20,C  14,C   1,C  17)   -180.00 -0.000051   -0.01   -180.01   
   717. D(C   3,C  15,C  14,H  20)   -102.53  0.000229   -0.04   -102.57   
   718. D(C   3,C  15,C  14,C  13)     77.47 -0.000137    0.04     77.51   
   719. D(C   2,C  15,C  14,C   3)      0.00 -0.000052   -0.00     -0.00   
   720. D(C   2,C  15,C  14,H  20)   -102.53  0.000176   -0.04   -102.57   
   721. D(C   2,C  15,C  14,C  13)     77.47 -0.000189    0.04     77.51   
   722. D(H  21,C  15,C  14,C   3)    102.53  0.000022   -0.01    102.52   
   723. D(H  21,C  15,C  14,C   2)    102.53  0.000074   -0.01    102.52   
   724. D(H  21,C  15,C  14,H  20)      0.00  0.000251   -0.05     -0.05   
   725. D(H  21,C  15,C  14,C  13)    180.00 -0.000115    0.03    180.03   
   726. D(C  16,C  15,C  14,C   1)    -60.84  0.000516   -0.09    -60.93   
   727. D(C  16,C  15,C  14,C   2)    -77.47  0.000242   -0.03    -77.50   
   728. D(C  16,C  15,C  14,H  20)    180.00  0.000419   -0.07    179.93   
   729. D(C  16,C  15,C  14,C  13)      0.00  0.000053    0.01      0.01   
   730. D(C   2,C  15,C   4,C   5)    -83.28  0.000285   -0.04    -83.32   
   731. D(C   2,C  15,C   4,C   3)     37.94  0.000243   -0.06     37.88   
   732. D(H  21,C  15,C   4,C  17)    154.04  0.000168   -0.04    154.00   
   733. D(H  21,C  15,C   4,H  10)     49.91 -0.000007   -0.01     49.91   
   734. D(H  21,C  15,C   4,C   5)    180.00  0.000038   -0.01    179.99   
   735. D(H  21,C  15,C   4,C   3)    -58.78 -0.000004   -0.04    -58.82   
   736. D(C  16,C  15,C   4,H  10)    -71.30 -0.000166    0.02    -71.28   
   737. D(C  16,C  15,C   4,C   5)     58.78 -0.000121    0.01     58.79   
   738. D(C  16,C  15,C   4,C   3)   -180.00 -0.000164   -0.02   -180.02   
   739. D(C  14,C  15,C   4,C  16)   -108.70  0.000358   -0.08   -108.78   
   740. D(C  14,C  15,C   4,H  10)   -180.00  0.000192   -0.06   -180.06   
   741. D(C  14,C  15,C   4,C   5)    -49.91  0.000237   -0.07    -49.98   
   742. D(C  14,C  15,C   4,C   3)     71.30  0.000194   -0.09     71.21   
   743. D(C   2,C  15,C   3,H   9)    122.28  0.000194   -0.03    122.25   
   744. D(C   2,C  15,C   3,C   4)   -115.43  0.000135   -0.05   -115.48   
   745. D(H  21,C  15,C   3,C  14)   -122.28  0.000027    0.02   -122.27   
   746. D(H  21,C  15,C   3,C  16)    122.28  0.000154   -0.03    122.26   
   747. D(H  21,C  15,C   3,H   9)      0.00  0.000073   -0.02     -0.02   
   748. D(H  21,C  15,C   3,C   4)    122.28  0.000014   -0.04    122.24   
   749. D(C  16,C  15,C   3,C  14)    115.43 -0.000127    0.04    115.47   
   750. D(C  16,C  15,C   3,C  17)     29.90 -0.000075   -0.00     29.90   
   751. D(C  16,C  15,C   3,H   9)   -122.28 -0.000081    0.00   -122.28   
   752. D(C  16,C  15,C   3,C   2)    115.43 -0.000275    0.03    115.46   
   753. D(C  14,C  15,C   3,C  17)    -85.53  0.000051   -0.04    -85.57   
   754. D(C  14,C  15,C   3,C  16)   -115.43  0.000127   -0.04   -115.47   
   755. D(C  14,C  15,C   3,H   9)    122.28  0.000046   -0.04    122.24   
   756. D(C  14,C  15,C   3,C   4)   -115.43 -0.000013   -0.06   -115.49   
   757. D(C  14,C  15,C   3,C   2)      0.00 -0.000148   -0.01     -0.01   
   758. D(H  21,C  15,C   2,C  13)   -149.99  0.000089   -0.00   -149.99   
   759. D(H  21,C  15,C   2,H   8)    -61.20 -0.000176    0.01    -61.19   
   760. D(C  16,C  15,C   2,C  13)     91.21  0.000064   -0.00     91.21   
   761. D(C  16,C  15,C   2,C   3)    -59.37 -0.000086    0.00    -59.37   
   762. D(C  14,C  15,C   2,C  13)    -29.41  0.000012   -0.01    -29.42   
   763. D(C  14,C  15,C   2,C  17)    -90.03 -0.000118   -0.01    -90.05   
   764. D(C  16,C  15,C   3,C   4)      0.00 -0.000140   -0.01     -0.01   
   765. D(C  14,C  15,C   2,C   1)    -59.42 -0.000077   -0.01    -59.44   
   766. D(H  21,C  15,C   1,C  12)    180.00 -0.000008   -0.01    179.99   
   767. D(C  16,C  15,C   1,C  14)    126.72  0.000284   -0.03    126.69   
   768. D(H  21,C  15,C   3,C   2)   -122.28 -0.000121    0.01   -122.28   
   769. D(C  16,C  15,C   1,C  12)     65.85  0.000081   -0.02     65.83   
   770. D(C  16,C  15,C   1,H   7)    126.72  0.000235   -0.04    126.68   
   771. D(C  14,C  15,C   1,C  13)    -28.26  0.000025   -0.01    -28.27   
   772. D(H  21,C  15,C   3,C  17)    152.18  0.000078   -0.03    152.16   
   773. D(C  14,C  15,C   1,C   2)    119.13 -0.000195    0.01    119.14   
   774. D(C  14,C  15,C   1,C   0)   -126.72 -0.000291    0.03   -126.69   
   775. D(C  14,C  15,C   1,C  17)    -95.39 -0.000374    0.03    -95.35   
   776. D(C  16,C  15,C   1,C   0)      0.00 -0.000008    0.00      0.00   
   777. D(C  14,C  15,C   1,C  16)   -126.72 -0.000284    0.03   -126.69   
   778. D(C  14,C  15,C   1,C  12)    -60.87 -0.000203    0.01    -60.86   
   779. D(C  16,C  15,C   1,C  17)     31.33 -0.000090    0.00     31.33   
   780. D(C  14,C  15,C   4,C  17)    -75.88  0.000366   -0.10    -75.97   
   781. D(C  16,C  15,C   1,C   2)   -114.15  0.000089   -0.02   -114.18   
   782. D(H  21,C  15,C   1,C   2)      0.00 -0.000000   -0.01     -0.01   
   783. D(H  21,C  15,C   1,C   0)    114.15 -0.000097    0.02    114.17   
   784. D(C  16,C  15,C   4,C  17)     32.82  0.000009   -0.02     32.80   
   785. D(H  21,C  15,C   1,H   7)   -119.13  0.000146   -0.02   -119.15   
   786. D(H  21,C  15,C   1,C  13)   -147.39  0.000220   -0.03   -147.42   
   787. D(H  21,C  15,C   1,C  16)    114.15 -0.000089    0.02    114.17   
   788. D(H  21,C  15,C   4,C  16)    121.22  0.000159   -0.02    121.19   
   789. D(H  21,C  15,C   1,C  17)    145.48 -0.000179    0.02    145.50   
   790. D(C  16,C  15,C   1,C  13)     98.46  0.000309   -0.05     98.41   
   791. D(C  14,C  15,C   1,H   7)      0.00 -0.000049   -0.01     -0.01   
   792. D(C  14,C  15,C   2,C  16)   -120.63 -0.000052   -0.01   -120.64   
   793. D(C  14,C  15,C   2,C  12)    -59.42 -0.000083   -0.01    -59.43   
   794. D(C  14,C  15,C   2,H   8)     59.37 -0.000253    0.00     59.38   
   795. D(C  16,C  15,C   2,H   8)    180.00 -0.000201    0.01    180.01   
   796. D(C  16,C  15,C  14,C   3)    -77.47  0.000190   -0.03    -77.50   
   797. D(C  16,C  15,C   2,C   1)     61.20 -0.000024   -0.00     61.20   
   798. D(C  16,C  15,C   2,C  14)    120.63  0.000052    0.01    120.64   
   799. D(C  14,C  15,C   2,C   3)   -180.00 -0.000139   -0.01   -180.01   
   800. D(H  21,C  15,C  14,C   1)    119.16  0.000348   -0.07    119.09   
   801. D(C  16,C  15,C   2,C  12)     61.20 -0.000031   -0.00     61.20   
   802. D(H  21,C  15,C   2,C   1)    180.00 -0.000000   -0.01    179.99   
   803. D(H  21,C  15,C   2,C   3)     59.42 -0.000062   -0.00     59.42   
   804. D(C   2,C  15,C  14,C   1)     16.63  0.000274   -0.06     16.57   
   805. D(H  21,C  15,C   2,C  14)   -120.58  0.000076    0.01   -120.57   
   806. D(H  21,C  15,C   2,C  17)    149.39 -0.000041   -0.01    149.38   
   807. D(H  21,C  15,C   2,C  16)    118.80  0.000024   -0.00    118.79   
   808. D(C  16,C  15,C   2,C  17)     30.59 -0.000065   -0.00     30.59   
   809. D(C  15,C  16,C   4,C   5)   -122.28 -0.000152    0.02   -122.27   
   810. D(C  15,C  16,C   4,C   3)      0.00 -0.000140   -0.01     -0.01   
   811. D(C   2,C  16,C   3,C  14)     29.98  0.000079    0.00     29.98   
   812. D(C   2,C  16,C   3,C  15)     59.37  0.000091   -0.00     59.37   
   813. D(C   2,C  16,C   3,H   9)    118.80  0.000062   -0.01    118.79   
   814. D(C   2,C  16,C   3,C   4)   -120.63 -0.000040   -0.02   -120.64   
   815. D(H  22,C  16,C   3,C  17)    118.80 -0.000146    0.01    118.81   
   816. D(H  22,C  16,C   3,C  15)   -120.63 -0.000100    0.01   -120.62   
   817. D(H  22,C  16,C   3,H   9)    -61.20 -0.000128    0.01    -61.20   
   818. D(H  22,C  16,C   3,C   4)     59.37 -0.000230   -0.00     59.37   
   819. D(H  22,C  16,C   3,C   2)    180.00 -0.000191    0.01    180.01   
   820. D(C  17,C  16,C   3,C  14)     91.18  0.000034    0.00     91.18   
   821. D(C  17,C  16,C   3,C  15)    120.58  0.000046   -0.00    120.58   
   822. D(C  17,C  16,C   3,C   4)    -59.42 -0.000085   -0.01    -59.44   
   823. D(C  17,C  16,C   3,C   2)     61.20 -0.000045    0.00     61.20   
   824. D(C  15,C  16,C   3,C  14)    -29.40 -0.000012    0.01    -29.39   
   825. D(C  15,C  16,C   3,H   9)     59.42 -0.000029   -0.00     59.42   
   826. D(C  15,C  16,C   3,C   4)   -180.00 -0.000131   -0.01   -180.01   
   827. D(C  15,C  16,C   3,C   2)    -59.37 -0.000091    0.00    -59.37   
   828. D(C   3,C  16,C   2,C   1)    120.63  0.000131   -0.02    120.61   
   829. D(H  22,C  16,C   2,C  12)    150.01 -0.000109    0.01    150.02   
   830. D(H  22,C  16,C   2,C  13)    180.00 -0.000060    0.01    180.01   
   831. D(H  22,C  16,C   2,C  17)    120.63 -0.000063   -0.00    120.62   
   832. D(H  22,C  16,C   2,C  14)   -149.37 -0.000027    0.00   -149.37   
   833. D(H  22,C  16,C   2,C  15)   -118.75  0.000061   -0.02   -118.77   
   834. D(H  22,C  16,C   2,H   8)   -118.75 -0.000140   -0.01   -118.75   
   835. D(H  22,C  16,C   2,C   1)    120.63 -0.000060   -0.00    120.62   
   836. D(C  17,C  16,C   2,C  12)     29.38 -0.000046    0.02     29.40   
   837. D(C  17,C  16,C   2,C  13)     59.37  0.000003    0.01     59.39   
   838. D(C  17,C  16,C   2,C  15)    120.63  0.000124   -0.02    120.61   
   839. D(C  17,C  16,C   2,H   8)    120.63 -0.000077   -0.00    120.62   
   840. D(C  17,C  16,C   2,C   3)   -120.63 -0.000128    0.02   -120.61   
   841. D(C  15,C  16,C   2,C  12)    -91.24 -0.000170    0.03    -91.21   
   842. D(C  15,C  16,C   2,C  13)    -61.25 -0.000121    0.03    -61.22   
   843. D(C  15,C  16,C   2,C  17)   -120.63 -0.000124    0.02   -120.61   
   844. D(C  15,C  16,C   2,C  14)    -30.63 -0.000088    0.02    -30.61   
   845. D(C  15,C  16,C   2,H   8)     -0.00 -0.000201    0.01      0.01   
   846. D(C  15,C  16,C   2,C   3)    118.75 -0.000252    0.03    118.78   
   847. D(C  15,C  16,C   2,C   1)   -120.63 -0.000121    0.01   -120.61   
   848. D(C   3,C  16,C   1,C   2)    -32.31 -0.000114    0.01    -32.30   
   849. D(C   3,C  16,C   1,C   0)     90.06  0.000126   -0.03     90.03   
   850. D(H  22,C  16,C   1,C  15)   -122.28 -0.000042    0.01   -122.28   
   851. D(H  22,C  16,C   1,C  14)   -150.07  0.000022    0.00   -150.07   
   852. D(H  22,C  16,C   1,C  13)    180.00  0.000006    0.00    180.00   
   853. D(H  22,C  16,C   1,C  17)    115.34 -0.000291    0.05    115.39   
   854. D(H  22,C  16,C   1,C  12)    147.65 -0.000199    0.03    147.69   
   855. D(H  22,C  16,C   1,H   7)   -180.00  0.000026   -0.00   -180.00   
   856. D(H  22,C  16,C   1,C   2)    -64.66 -0.000288    0.05    -64.61   
   857. D(H  22,C  16,C   1,C   0)     57.72 -0.000049    0.01     57.72   
   858. D(C  17,C  16,C   1,C  15)    122.37  0.000249   -0.04    122.33   
   859. D(C  17,C  16,C   1,C  14)     94.59  0.000313   -0.05     94.54   
   860. D(C  17,C  16,C   2,C   1)      0.00  0.000003   -0.00     -0.00   
   861. D(C  17,C  16,C   1,C  13)     64.66  0.000297   -0.04     64.62   
   862. D(C  17,C  16,C   1,C  12)     32.31  0.000093   -0.01     32.30   
   863. D(C  17,C  16,C   1,H   7)     64.66  0.000317   -0.05     64.61   
   864. D(C  17,C  16,C   2,C  14)     90.00  0.000036    0.01     90.01   
   865. D(C  17,C  16,C   1,C   2)    180.00  0.000003   -0.00    180.00   
   866. D(C  17,C  16,C   1,C   0)    -57.63  0.000242   -0.04    -57.66   
   867. D(C  15,C  16,C   1,C  14)    -27.79  0.000063   -0.01    -27.79   
   868. D(H  22,C  16,C   2,C   3)     -0.00 -0.000191    0.01      0.01   
   869. D(C  15,C  16,C   1,C  13)    -57.72  0.000048   -0.00    -57.72   
   870. D(C  15,C  16,C   1,C  17)   -122.37 -0.000249    0.04   -122.33   
   871. D(C  15,C  16,C   1,C  12)    -90.06 -0.000157    0.03    -90.03   
   872. D(C  15,C  16,C   1,H   7)    -57.72  0.000068   -0.01    -57.72   
   873. D(C  15,C  16,C   1,C   2)     57.63 -0.000246    0.04     57.66   
   874. D(C  15,C  16,C   1,C   0)    180.00 -0.000007    0.00    180.00   
   875. D(C   3,C  16,C   0,C  17)    180.00 -0.000003    0.00    180.00   
   876. D(C   3,C  16,C   2,H   8)   -118.75  0.000051   -0.02   -118.77   
   877. D(C   3,C  16,C   0,H   6)    180.00 -0.000022    0.01    180.01   
   878. D(C   3,C  16,C   0,C   5)     60.87  0.000213   -0.01     60.86   
   879. D(C   3,C  16,C   0,C   1)    -65.85 -0.000097    0.02    -65.82   
   880. D(C  15,C  16,C   3,C  17)   -120.58 -0.000046    0.00   -120.58   
   881. D(H  22,C  16,C   0,C  13)    180.00  0.000062   -0.00    180.00   
   882. D(H  22,C  16,C   0,C  12)    151.74  0.000026   -0.00    151.74   
   883. D(H  22,C  16,C   0,C  17)    119.13 -0.000125    0.02    119.15   
   884. D(C  17,C  16,C   3,H   9)    180.00  0.000017   -0.01    179.99   
   885. D(H  22,C  16,C   0,H   6)    119.13 -0.000144    0.02    119.15   
   886. D(H  22,C  16,C   0,C   5)     -0.00  0.000090    0.01      0.01   
   887. D(H  22,C  16,C   0,C   1)   -126.72 -0.000219    0.04   -126.68   
   888. D(C  17,C  16,C   0,C  13)     60.87  0.000188   -0.02     60.85   
   889. D(C  17,C  16,C   0,C  12)     32.61  0.000151   -0.02     32.59   
   890. D(C  17,C  16,C   0,H   6)      0.00 -0.000019    0.01      0.01   
   891. D(C  17,C  16,C   0,C   5)   -119.13  0.000216   -0.01   -119.14   
   892. D(H  22,C  16,C   3,C  14)   -150.02 -0.000112    0.02   -150.01   
   893. D(C  17,C  16,C   0,C   1)    114.15 -0.000094    0.02    114.18   
   894. D(C  15,C  16,C   0,C  13)    -53.28  0.000274   -0.04    -53.32   
   895. D(C  15,C  16,C   0,C  12)    -81.54  0.000238   -0.05    -81.58   
   896. D(C   2,C  16,C   3,C  17)    -61.20  0.000045   -0.00    -61.20   
   897. D(C  15,C  16,C   0,C  17)   -114.15  0.000086   -0.02   -114.17   
   898. D(C  15,C  16,C   0,H   6)   -114.15  0.000067   -0.02   -114.17   
   899. D(C  15,C  16,C   0,C   5)    126.72  0.000302   -0.03    126.69   
   900. D(C  15,C  16,C   4,H  10)    115.43 -0.000061    0.00    115.43   
   901. D(C  15,C  16,C   0,C   1)      0.00 -0.000008    0.00      0.00   
   902. D(C   2,C  16,C  15,C   3)    -19.00 -0.000489    0.08    -18.92   
   903. D(C   2,C  16,C  15,H  21)    -96.47 -0.000192    0.03    -96.45   
   904. D(C   2,C  16,C  15,C  14)     83.53 -0.000360    0.04     83.57   
   905. D(C   3,C  16,C  15,C   4)      0.00 -0.000049   -0.00     -0.00   
   906. D(C   3,C  16,C  15,C   1)     36.71  0.000764   -0.15     36.56   
   907. D(C   3,C  16,C  15,C   2)     19.00  0.000489   -0.08     18.92   
   908. D(C   3,C  16,C  15,H  21)    -77.47  0.000297   -0.06    -77.53   
   909. D(H  22,C  16,C  15,C   4)     77.47 -0.000427    0.05     77.52   
   910. D(H  22,C  16,C  15,C   1)    114.18  0.000387   -0.09    114.09   
   911. D(H  22,C  16,C  15,C   3)     77.47 -0.000378    0.06     77.53   
   912. D(H  22,C  16,C  15,H  21)      0.00 -0.000080   -0.00     -0.00   
   913. D(H  22,C  16,C  15,C  14)    180.00 -0.000248    0.02    180.02   
   914. D(C  17,C  16,C  15,C   4)   -102.53 -0.000229    0.03   -102.50   
   915. D(C  17,C  16,C  15,C   3)   -102.53 -0.000180    0.03   -102.50   
   916. D(C  17,C  16,C  15,C   2)    -83.53  0.000309   -0.05    -83.58   
   917. D(C  17,C  16,C  15,H  21)    180.00  0.000117   -0.03    179.97   
   918. D(C  17,C  16,C  15,C  14)      0.00 -0.000051   -0.01     -0.01   
   919. D(C   3,C  16,C   5,C  12)   -121.27  0.000099    0.01   -121.26   
   920. D(C   3,C  16,C   5,C  17)   -148.60  0.000175   -0.01   -148.61   
   921. D(C   3,C  16,C   5,H  11)    145.49 -0.000083    0.04    145.53   
   922. D(C   3,C  16,C   5,C   0)    -95.25  0.000057    0.04    -95.21   
   923. D(H  22,C  16,C   5,C  12)    153.98  0.000133   -0.02    153.95   
   924. D(H  22,C  16,C   5,C  17)    126.65  0.000208   -0.04    126.61   
   925. D(H  22,C  16,C   5,H  11)     60.74 -0.000050    0.01     60.75   
   926. D(H  22,C  16,C   5,C   4)    -53.35  0.000197   -0.04    -53.39   
   927. D(H  22,C  16,C   5,C   0)    180.00  0.000090    0.01    180.01   
   928. D(C  17,C  16,C   5,C  12)     27.33 -0.000076    0.02     27.35   
   929. D(C  17,C  16,C   5,H  11)    -65.91 -0.000258    0.05    -65.86   
   930. D(C  17,C  16,C   5,C   4)    180.00 -0.000012    0.00    180.00   
   931. D(C  17,C  16,C   5,C   0)     53.35 -0.000118    0.05     53.40   
   932. D(C   3,C  16,C   5,C   4)     31.40  0.000163   -0.01     31.39   
   933. D(C  15,C  16,C   5,C  12)    -86.76  0.000082   -0.02    -86.78   
   934. D(C  15,C  16,C   5,C  17)   -114.09  0.000158   -0.04   -114.13   
   935. D(C  15,C  16,C   5,H  11)    180.00 -0.000100    0.01    180.01   
   936. D(C  15,C  16,C   5,C   4)     65.91  0.000146   -0.04     65.87   
   937. D(C  15,C  16,C   5,C   0)    -60.74  0.000039    0.01    -60.73   
   938. D(C   2,C  16,C   4,C   5)    -90.00  0.000031    0.01    -89.99   
   939. D(C   2,C  16,C   4,C   3)     32.28  0.000044   -0.02     32.26   
   940. D(C  17,C  16,C  15,C   1)    -65.82  0.000584   -0.12    -65.93   
   941. D(C   3,C  16,C   4,C  15)      0.00  0.000140    0.01      0.01   
   942. D(C   3,C  16,C   4,C  17)   -122.28 -0.000002    0.03   -122.26   
   943. D(C   3,C  16,C   4,H  10)    115.43  0.000079    0.02    115.45   
   944. D(H  22,C  16,C  15,C   2)     96.47  0.000111   -0.03     96.44   
   945. D(C   3,C  16,C   4,C   5)   -122.28 -0.000013    0.03   -122.26   
   946. D(H  22,C  16,C   4,C  15)   -115.43  0.000158   -0.03   -115.46   
   947. D(H  22,C  16,C   4,C  17)    122.28  0.000017   -0.01    122.27   
   948. D(C   3,C  16,C  15,C  14)    102.53  0.000129   -0.04    102.49   
   949. D(H  22,C  16,C   4,H  10)      0.00  0.000098   -0.02     -0.02   
   950. D(H  22,C  16,C   4,C   5)    122.28  0.000006   -0.01    122.27   
   951. D(H  22,C  16,C   4,C   3)   -115.43  0.000019   -0.04   -115.47   
   952. D(C  17,C  16,C   4,C  15)    122.28  0.000141   -0.01    122.27   
   953. D(C  17,C  16,C   4,H  10)   -122.28  0.000081   -0.01   -122.30   
   954. D(C  17,C  16,C   4,C   5)      0.00 -0.000011    0.00      0.00   
   955. D(C  17,C  16,C   4,C   3)    122.28  0.000002   -0.03    122.26   
   956. D(C   2,C  16,C  15,C   1)     17.71  0.000275   -0.06     17.65   
   957. D(C  15,C  16,C   4,C  17)   -122.28 -0.000141    0.01   -122.27   
   958. D(C   1,C  17,C  16,C  15)     77.22 -0.000530    0.10     77.31   
   959. D(C   0,C  17,C  16,C   5)    -17.75 -0.000460    0.07    -17.68   
   960. D(C   0,C  17,C  16,C   1)     18.99  0.000432   -0.08     18.91   
   961. D(C   0,C  17,C  16,C   4)    -17.75 -0.000456    0.07    -17.68   
   962. D(C   0,C  17,C  16,C   2)     18.99  0.000431   -0.08     18.91   
   963. D(C   0,C  17,C  16,H  22)    -83.79  0.000099   -0.00    -83.80   
   964. D(C   0,C  17,C  16,C  15)     96.21 -0.000098    0.02     96.23   
   965. D(H  23,C  17,C  16,C   0)     83.79 -0.000076    0.00     83.79   
   966. D(H  23,C  17,C  16,C   1)    102.78  0.000355   -0.07    102.71   
   967. D(H  23,C  17,C  16,C   4)     66.04 -0.000533    0.07     66.11   
   968. D(H  23,C  17,C  16,C   2)    102.78  0.000354   -0.07    102.71   
   969. D(H  23,C  17,C  16,H  22)      0.00  0.000023   -0.00     -0.00   
   970. D(H  23,C  17,C  16,C  15)    180.00 -0.000175    0.02    180.02   
   971. D(C  12,C  17,C  16,C   0)    -96.21  0.000085   -0.02    -96.23   
   972. D(C  12,C  17,C  16,C   5)   -113.96 -0.000375    0.05   -113.91   
   973. D(C  12,C  17,C  16,C   1)    -77.22  0.000517   -0.09    -77.31   
   974. D(C  12,C  17,C  16,C   4)   -113.96 -0.000372    0.05   -113.91   
   975. D(C  12,C  17,C  16,C   2)    -77.22  0.000515   -0.09    -77.31   
   976. D(C  12,C  17,C  16,H  22)    180.00  0.000184   -0.02    179.98   
   977. D(C  12,C  17,C  16,C  15)      0.00 -0.000014    0.00      0.00   
   978. D(C   1,C  17,C  12,C   2)    -17.71 -0.000277    0.07    -17.65   
   979. D(C   1,C  17,C  12,H  18)     96.47  0.000201   -0.03     96.44   
   980. D(C   1,C  17,C  12,C  13)    -83.53  0.000360   -0.05    -83.57   
   981. D(C   0,C  17,C  12,C   5)      0.00  0.000051    0.00      0.00   
   982. D(C   0,C  17,C  12,C   1)    -19.00 -0.000482    0.08    -18.92   
   983. D(C   0,C  17,C  12,H  18)     77.47 -0.000282    0.05     77.52   
   984. D(C   0,C  17,C  12,C  13)   -102.53 -0.000122    0.04   -102.49   
   985. D(H  23,C  17,C  12,C   5)    -77.47  0.000410   -0.05    -77.52   
   986. D(H  23,C  17,C  12,C   2)   -114.18 -0.000400    0.09   -114.09   
   987. D(H  23,C  17,C  12,C   0)    -77.47  0.000359   -0.05    -77.53   
   988. D(H  23,C  17,C  12,C   1)    -96.47 -0.000123    0.03    -96.44   
   989. D(H  23,C  17,C  12,C  13)    180.00  0.000237   -0.02    179.98   
   990. D(C  16,C  17,C  12,C   5)    102.53  0.000249   -0.03    102.50   
   991. D(C  16,C  17,C  12,C   2)     65.82 -0.000561    0.11     65.93   
   992. D(C  16,C  17,C  12,C   1)     83.53 -0.000284    0.05     83.58   
   993. D(C  16,C  17,C  12,H  18)    180.00 -0.000083    0.02    180.02   
   994. D(C  16,C  17,C  12,C  13)      0.00  0.000076    0.00      0.00   
   995. D(C   1,C  17,C   5,C   0)    -32.28 -0.000026    0.02    -32.26   
   996. D(C   0,C  17,C   5,C  12)      0.00 -0.000144   -0.01     -0.01   
   997. D(C   0,C  17,C   5,C  16)    122.28  0.000002   -0.03    122.26   
   998. D(C   0,C  17,C   5,H  11)   -115.43 -0.000085   -0.01   -115.44   
   999. D(C   0,C  17,C   5,C   4)    122.28 -0.000009   -0.02    122.26   
  1000. D(H  23,C  17,C   5,C  12)    115.43 -0.000157    0.03    115.46   
  1001. D(H  23,C  17,C   5,C  16)   -122.28 -0.000011    0.01   -122.27   
  1002. D(H  23,C  17,C   5,C   4)   -122.28 -0.000022    0.01   -122.27   
  1003. D(H  23,C  17,C   5,C   0)    115.43 -0.000013    0.04    115.47   
  1004. D(C  16,C  17,C   5,C  12)   -122.28 -0.000146    0.01   -122.27   
  1005. D(C  16,C  17,C   5,C   4)      0.00 -0.000011    0.00      0.00   
  1006. D(C  16,C  17,C   5,C   0)   -122.28 -0.000002    0.03   -122.26   
  1007. D(C  12,C  17,C   5,C  16)    122.28  0.000146   -0.01    122.27   
  1008. D(C  12,C  17,C   5,C   4)    122.28  0.000135   -0.01    122.27   
  1009. D(C  12,C  17,C   5,C   0)     -0.00  0.000144    0.01      0.01   
  1010. D(C   0,C  17,C   4,C  15)    121.27 -0.000099   -0.01    121.26   
  1011. D(C   0,C  17,C   4,C  16)    148.60 -0.000169    0.01    148.61   
  1012. D(C   0,C  17,C   4,H  10)   -145.49  0.000082   -0.04   -145.53   
  1013. D(C   0,C  17,C   4,C   5)    -31.40 -0.000180    0.01    -31.39   
  1014. D(C   0,C  17,C   4,C   3)     95.25 -0.000042   -0.04     95.20   
  1015. D(H  23,C  17,C   4,C  16)   -126.65 -0.000197    0.04   -126.61   
  1016. D(H  23,C  17,C   4,H  10)    -60.74  0.000054   -0.01    -60.75   
  1017. D(H  23,C  17,C   4,C   5)     53.35 -0.000209    0.04     53.39   
  1018. D(C  16,C  17,C   4,C  15)    -27.33  0.000070   -0.02    -27.35   
  1019. D(C  16,C  17,C   4,H  10)     65.91  0.000251   -0.04     65.86   
  1020. D(C  16,C  17,C   4,C   5)    180.00 -0.000012    0.00    180.00   
  1021. D(C  12,C  17,C   4,C  15)     86.76 -0.000085    0.02     86.79   
  1022. D(C  12,C  17,C   4,C  16)    114.09 -0.000155    0.04    114.13   
  1023. D(C  12,C  17,C   4,H  10)   -180.00  0.000096   -0.01   -180.01   
  1024. D(C  12,C  17,C   4,C   5)    -65.91 -0.000167    0.04    -65.87   
  1025. D(C  12,C  17,C   4,C   3)     60.74 -0.000028   -0.01     60.73   
  1026. D(C   0,C  17,C   3,C  16)    180.00 -0.000003    0.00    180.00   
  1027. D(C   0,C  17,C   3,H   9)    180.00  0.000017   -0.01    179.99   
  1028. D(C   0,C  17,C   3,C   2)     65.85  0.000072   -0.02     65.83   
  1029. D(H  23,C  17,C   3,C  14)   -180.00 -0.000056    0.00   -180.00   
  1030. D(H  23,C  17,C   3,C  15)   -151.74 -0.000023    0.00   -151.74   
  1031. D(H  23,C  17,C   3,H   9)   -119.13  0.000151   -0.02   -119.15   
  1032. D(H  23,C  17,C   3,C   4)      0.00 -0.000070   -0.01     -0.01   
  1033. D(H  23,C  17,C   3,C   2)    126.72  0.000206   -0.04    126.68   
  1034. D(C  16,C  17,C   3,C  14)    -60.87 -0.000187    0.02    -60.85   
  1035. D(C  16,C  17,C   3,C  15)    -32.61 -0.000154    0.02    -32.59   
  1036. D(C  16,C  17,C   3,H   9)      0.00  0.000020   -0.01     -0.01   
  1037. D(C  16,C  17,C   3,C   4)    119.13 -0.000201    0.01    119.14   
  1038. D(C  16,C  17,C   3,C   2)   -114.15  0.000075   -0.02   -114.17   
  1039. D(C  12,C  17,C   3,C  14)     53.28 -0.000278    0.05     53.33   
  1040. D(H  23,C  17,C   3,C  16)   -119.13  0.000131   -0.02   -119.15   
  1041. D(C  12,C  17,C   3,C  15)     81.54 -0.000245    0.05     81.59   
  1042. D(C  12,C  17,C   3,C  16)    114.15 -0.000091    0.03    114.18   
  1043. D(C  12,C  17,C   3,H   9)    114.15 -0.000071    0.02    114.17   
  1044. D(C   0,C  17,C   3,C   4)    -60.87 -0.000204    0.01    -60.86   
  1045. D(C  12,C  17,C   3,C   4)   -126.72 -0.000292    0.03   -126.69   
  1046. D(C  12,C  17,C   3,C   2)      0.00 -0.000016    0.00      0.00   
  1047. D(C   0,C  17,C   2,C   3)    -90.06 -0.000143    0.03    -90.03   
  1048. D(C   0,C  17,C   2,C   1)     32.31  0.000117   -0.01     32.30   
  1049. D(H  23,C  17,C   2,C  12)    122.28  0.000045   -0.01    122.28   
  1050. D(H  23,C  17,C   2,C  13)    150.07 -0.000021    0.00    150.07   
  1051. D(H  23,C  17,C   2,C  14)   -180.00 -0.000005   -0.00   -180.00   
  1052. D(C  16,C  17,C   4,C   3)    -53.35  0.000127   -0.05    -53.40   
  1053. D(H  23,C  17,C   2,C  16)   -115.34  0.000287   -0.04   -115.39   
  1054. D(H  23,C  17,C   2,C  15)   -147.65  0.000196   -0.03   -147.69   
  1055. D(H  23,C  17,C   2,H   8)    180.00 -0.000025    0.00    180.00   
  1056. D(H  23,C  17,C   4,C   3)   -180.00 -0.000070   -0.01   -180.01   
  1057. D(H  23,C  17,C   2,C   3)    -57.72  0.000030   -0.00    -57.72   
  1058. D(H  23,C  17,C   2,C   1)     64.66  0.000290   -0.05     64.61   
  1059. D(C  16,C  17,C   2,C  12)   -122.37 -0.000242    0.04   -122.34   
  1060. D(H  23,C  17,C   4,C  15)   -153.98 -0.000127    0.02   -153.95   
  1061. D(C  16,C  17,C   2,C  13)    -94.59 -0.000308    0.04    -94.54   
  1062. D(C  16,C  17,C   2,C  14)    -64.66 -0.000292    0.04    -64.62   
  1063. D(C  16,C  17,C   2,C  15)    -32.31 -0.000091    0.01    -32.30   
  1064. D(C  16,C  17,C   2,H   8)    -64.66 -0.000312    0.05    -64.61   
  1065. D(C  16,C  17,C   2,C   3)     57.63 -0.000257    0.04     57.67   
  1066. D(C  16,C  17,C   2,C   1)    180.00  0.000003   -0.00    180.00   
  1067. D(C  12,C  17,C   2,C  13)     27.79 -0.000066    0.01     27.80   
  1068. D(C  12,C  17,C   5,H  11)   -115.43  0.000059   -0.00   -115.43   
  1069. D(C  12,C  17,C   2,C  14)     57.72 -0.000051    0.00     57.72   
  1070. D(C  12,C  17,C   2,C  16)    122.37  0.000242   -0.04    122.34   
  1071. D(C  12,C  17,C   2,C  15)     90.06  0.000151   -0.03     90.04   
  1072. D(C  16,C  17,C   5,H  11)    122.28 -0.000087    0.01    122.30   
  1073. D(C  12,C  17,C   2,H   8)     57.72 -0.000071    0.01     57.72   
  1074. D(C  12,C  17,C   2,C   3)    180.00 -0.000015    0.00    180.00   
  1075. D(C  12,C  17,C   2,C   1)    -57.63  0.000245   -0.04    -57.66   
  1076. D(H  23,C  17,C   5,H  11)     -0.00 -0.000098    0.03      0.03   
  1077. D(C   0,C  17,C   1,H   7)    118.75 -0.000037    0.02    118.77   
  1078. D(C   0,C  17,C   1,C   2)   -120.63 -0.000116    0.01   -120.61   
  1079. D(H  23,C  17,C   1,C  15)   -150.01  0.000101   -0.01   -150.02   
  1080. D(H  23,C  17,C   1,C  14)   -180.00  0.000054   -0.01   -180.01   
  1081. D(H  23,C  17,C   1,C  16)   -120.63  0.000055    0.00   -120.62   
  1082. D(H  23,C  17,C   1,C  13)    149.37  0.000024   -0.00    149.37   
  1083. D(H  23,C  17,C   1,C  12)    118.75 -0.000062    0.02    118.77   
  1084. D(C   1,C  17,C   5,C   4)     90.00 -0.000035   -0.00     90.00   
  1085. D(H  23,C  17,C   1,H   7)    118.75  0.000137    0.01    118.75   
  1086. D(H  23,C  17,C   1,C   2)   -120.63  0.000058    0.00   -120.62   
  1087. D(H  23,C  17,C   1,C   0)      0.00  0.000174   -0.01     -0.01   
  1088. D(C  16,C  17,C  12,C   0)    102.53  0.000198   -0.03    102.50   
  1089. D(C  16,C  17,C   1,C  15)    -29.38  0.000046   -0.02    -29.40   
  1090. D(C  16,C  17,C   1,C  14)    -59.37 -0.000001   -0.01    -59.39   
  1091. D(C  16,C  17,C   1,C  13)    -90.00 -0.000031   -0.01    -90.01   
  1092. D(H  23,C  17,C  12,H  18)      0.00  0.000078   -0.00     -0.00   
  1093. D(C  16,C  17,C   1,C  12)   -120.63 -0.000117    0.01   -120.61   
  1094. D(C  16,C  17,C   1,H   7)   -120.63  0.000082    0.00   -120.62   
  1095. D(C  16,C  17,C   1,C   2)      0.00  0.000003   -0.00     -0.00   
  1096. D(C  16,C  17,C   1,C   0)    120.63  0.000119   -0.02    120.61   
  1097. D(C  12,C  17,C   1,C  15)     91.24  0.000163   -0.03     91.21   
  1098. D(C  12,C  17,C   1,C  14)     61.25  0.000116   -0.03     61.23   
  1099. D(C  12,C  17,C   1,C  16)    120.63  0.000117   -0.01    120.61   
  1100. D(C   0,C  17,C  12,C   2)    -36.71 -0.000759    0.15    -36.56   
  1101. D(C  12,C  17,C   1,C  13)     30.63  0.000086   -0.02     30.61   
  1102. D(C  12,C  17,C   1,H   7)      0.00  0.000199   -0.01     -0.01   
  1103. D(C  12,C  17,C   1,C   2)    120.63  0.000120   -0.01    120.61   
  1104. D(C   1,C  17,C  12,C   0)     19.00  0.000482   -0.08     18.92   
  1105. D(C  12,C  17,C   1,C   0)   -118.75  0.000236   -0.03   -118.78   
  1106. D(C   1,C  17,C   0,C  13)    -29.98 -0.000066   -0.00    -29.98   
  1107. D(C   1,C  17,C   0,C  16)     61.20 -0.000030   -0.00     61.20   
  1108. D(C  12,C  17,C  16,C   3)    -96.21  0.000083   -0.02    -96.23   
  1109. D(C   1,C  17,C   0,C  12)    -59.37 -0.000076    0.00    -59.37   
  1110. D(C   1,C  17,C   0,H   6)   -118.80 -0.000047    0.00   -118.79   
  1111. D(C   1,C  17,C   0,C   5)    120.63  0.000059    0.01    120.64   
  1112. D(H  23,C  17,C   0,C  13)    150.02  0.000108   -0.02    150.01   
  1113. D(H  23,C  17,C   0,C  16)   -118.80  0.000144   -0.01   -118.81   
  1114. D(H  23,C  17,C   0,C  12)    120.63  0.000098   -0.01    120.62   
  1115. D(H  23,C  17,C   0,H   6)     61.20  0.000127   -0.01     61.20   
  1116. D(H  23,C  17,C  16,C   3)     83.79 -0.000078    0.00     83.79   
  1117. D(H  23,C  17,C   0,C   5)    -59.37  0.000233    0.00    -59.37   
  1118. D(H  23,C  17,C   0,C   1)   -180.00  0.000174   -0.01   -180.01   
  1119. D(C  16,C  17,C   0,C  13)    -91.18 -0.000035   -0.00    -91.18   
  1120. D(H  23,C  17,C  16,C   5)     66.04 -0.000537    0.07     66.11   
  1121. D(C  16,C  17,C   0,C  12)   -120.58 -0.000046    0.00   -120.58   
  1122. D(C  16,C  17,C   0,H   6)    180.00 -0.000017    0.00    180.00   
  1123. D(C  16,C  17,C   0,C   5)     59.42  0.000089    0.01     59.43   
  1124. D(C   0,C  17,C  16,C   3)      0.00 -0.000002    0.00      0.00   
  1125. D(C  16,C  17,C   0,C   1)    -61.20  0.000030    0.00    -61.20   
  1126. D(C  12,C  17,C   0,C  13)     29.40  0.000011   -0.00     29.39   
  1127. D(C  12,C  17,C   0,C  16)    120.58  0.000046   -0.00    120.58   
  1128. D(C  12,C  17,C   0,H   6)    -59.42  0.000029    0.00    -59.42   
  1129. D(C  12,C  17,C   0,C   5)    180.00  0.000135    0.01    180.01   
  1130. D(C  12,C  17,C   0,C   1)     59.37  0.000076   -0.00     59.37   
    ----------------------------------------------------------------------------

Geometry step timings:
Preparation and reading OPT file:      0.000 s ( 0.003 %)
Internal coordinates            :      0.000 s ( 0.013 %)
B/P matrices and projection     :      0.329 s (29.195 %)
Hessian update/contruction      :      0.275 s (24.331 %)
Making the step                 :      0.501 s (44.357 %)
Converting the step to Cartesian:      0.008 s ( 0.677 %)
Storing new data                :      0.000 s ( 0.012 %)
Checking convergence            :      0.001 s ( 0.102 %)
Final printing                  :      0.015 s ( 1.311 %)
Total time                      :      1.128 s

Time for energy+gradient        :     18.656 s
Time for complete geometry iter :     20.410 s

         *************************************************************
         *                GEOMETRY OPTIMIZATION CYCLE   2            *
         *************************************************************
---------------------------------
CARTESIAN COORDINATES (ANGSTROEM)
---------------------------------
  C     -0.799483    1.389377   -1.800029
  C      0.404141    0.694626   -1.800880
  C      0.404148   -0.694670   -1.800885
  C     -0.799492   -1.389382   -1.800120
  C     -2.003100   -0.694913   -1.799060
  C     -2.003084    0.694894   -1.799135
  H     -0.799436    2.471749   -1.800393
  H      1.341249    1.235753   -1.801872
  H      1.341252   -1.235800   -1.801877
  H     -0.799431   -2.471748   -1.800622
  H     -2.940582   -1.236348   -1.799648
  H     -2.940562    1.236332   -1.799728
  C      0.799487    1.389434    1.800062
  C      2.003070    0.694908    1.799169
  C      2.003065   -0.694895    1.799136
  C      0.799477   -1.389387    1.800070
  C     -0.404121   -0.694641    1.800862
  C     -0.404117    0.694653    1.800879
  H      0.799452    2.471805    1.800401
  H      2.940558    1.236325    1.799763
  H      2.940551   -1.236323    1.799697
  H      0.799432   -2.471756    1.800489
  H     -1.341236   -1.235756    1.801854
  H     -1.341235    1.235760    1.801866

----------------------------
CARTESIAN COORDINATES (A.U.)
----------------------------
  NO LB      ZA    FRAG     MASS         X           Y           Z
   0 C     6.0000    0    12.011   -1.510805    2.625542   -3.401561
   1 C     6.0000    0    12.011    0.763715    1.312654   -3.403170
   2 C     6.0000    0    12.011    0.763730   -1.312736   -3.403180
   3 C     6.0000    0    12.011   -1.510820   -2.625551   -3.401734
   4 C     6.0000    0    12.011   -3.785310   -1.313195   -3.399730
   5 C     6.0000    0    12.011   -3.785280    1.313160   -3.399872
   6 H     1.0000    0     1.008   -1.510716    4.670929   -3.402249
   7 H     1.0000    0     1.008    2.534592    2.335236   -3.405045
   8 H     1.0000    0     1.008    2.534600   -2.335323   -3.405053
   9 H     1.0000    0     1.008   -1.510706   -4.670927   -3.402683
  10 H     1.0000    0     1.008   -5.556896   -2.336359   -3.400843
  11 H     1.0000    0     1.008   -5.556857    2.336330   -3.400994
  12 C     6.0000    0    12.011    1.510811    2.625649    3.401624
  13 C     6.0000    0    12.011    3.785253    1.313186    3.399937
  14 C     6.0000    0    12.011    3.785245   -1.313162    3.399875
  15 C     6.0000    0    12.011    1.510793   -2.625561    3.401639
  16 C     6.0000    0    12.011   -0.763678   -1.312682    3.403135
  17 C     6.0000    0    12.011   -0.763670    1.312705    3.403169
  18 H     1.0000    0     1.008    1.510746    4.671035    3.402264
  19 H     1.0000    0     1.008    5.556849    2.336317    3.401059
  20 H     1.0000    0     1.008    5.556835   -2.336313    3.400935
  21 H     1.0000    0     1.008    1.510707   -4.670942    3.402431
  22 H     1.0000    0     1.008   -2.534568   -2.335240    3.405011
  23 H     1.0000    0     1.008   -2.534568    2.335247    3.405034

--------------------------------
INTERNAL COORDINATES (ANGSTROEM)
--------------------------------
 C      0   0   0     0.000000000000     0.00000000     0.00000000
 C      1   0   0     1.389744357148     0.00000000     0.00000000
 C      2   1   0     1.389296380493   119.99451622     0.00000000
 C      3   2   1     1.389738779494   119.99217614     0.00000000
 C      4   3   2     1.389590361080   120.02303643     0.00000000
 C      1   2   3     1.389590299980   120.02069504     0.00000000
 H      1   2   3     1.082372729666   119.99169944   180.02247670
 H      2   1   3     1.082123272020   120.00180074   179.97964606
 H      3   2   1     1.082121222236   120.00453343   179.97993012
 H      4   3   2     1.082366404940   119.98928013   179.96954521
 H      5   4   3     1.082601398872   120.00725614   179.92759391
 H      6   1   2     1.082598925723   120.00638639   180.07680356
 C      8   2   1     3.645689730253    83.77027354    83.58949941
 C     13   8   2     1.389596910069    81.34904364   119.49109580
 C     14  13   8     1.389803344660   119.98682033   267.79132543
 C     15  14  13     1.389583673728   119.98589475     0.00000000
 C     16  15  14     1.389719893546   120.01974954     0.00000000
 C     17  16  15     1.389294618309   119.99437599     0.00000000
 H     13   8   2     1.082371689835    92.43394577   239.46284322
 H     14  13   8     1.082597273269   120.00567844    87.86854145
 H     15  14  13     1.082600389335   120.00762281   180.07678124
 H     16  15  14     1.082369446910   119.98812026   180.02717054
 H     17  16  15     1.082122750945   120.00220320   180.01625222
 H     18  17  16     1.082121932283   120.00259658   180.02265231

---------------------------
INTERNAL COORDINATES (A.U.)
---------------------------
 C      0   0   0     0.000000000000     0.00000000     0.00000000
 C      1   0   0     2.626236231171     0.00000000     0.00000000
 C      2   1   0     2.625389677980   119.99451622     0.00000000
 C      3   2   1     2.626225690934   119.99217614     0.00000000
 C      4   3   2     2.625945220777   120.02303643     0.00000000
 C      1   2   3     2.625945105315   120.02069504     0.00000000
 H      1   2   3     2.045388033894   119.99169944   180.02247670
 H      2   1   3     2.044916627260   120.00180074   179.97964606
 H      3   2   1     2.044912753731   120.00453343   179.97993012
 H      4   3   2     2.045376081893   119.98928013   179.96954521
 H      5   4   3     2.045820156069   120.00725614   179.92759391
 H      6   1   2     2.045815482494   120.00638639   180.07680356
 C      8   2   1     6.889355159428    83.77027354    83.58949941
 C     13   8   2     2.625957596573    81.34904364   119.49109580
 C     14  13   8     2.626347701416   119.98682033   267.79132543
 C     15  14  13     2.625932583514   119.98589475     0.00000000
 C     16  15  14     2.626190001664   120.01974954     0.00000000
 C     17  16  15     2.625386347934   119.99437599     0.00000000
 H     13   8   2     2.045386068897    92.43394577   239.46284322
 H     14  13   8     2.045812359809   120.00567844    87.86854145
 H     15  14  13     2.045818248319   120.00762281   180.07678124
 H     16  15  14     2.045381830383   119.98812026   180.02717054
 H     17  16  15     2.044915642572   120.00220320   180.01625222
 H     18  17  16     2.044914095525   120.00259658   180.02265231



           ************************************************************
           *        Program running with 4 parallel MPI-processes     *
           *              working on a common directory               *
           ************************************************************
------------------------------------------------------------------------------
                   ___                                                        
                  /   \      - P O W E R E D   B Y -                         
                 /     \                                                     
                 |  |  |   _    _      __       _____    __    __             
                 |  |  |  | |  | |    /  \     |  _  \  |  |  /  |          
                  \  \/   | |  | |   /    \    | | | |  |  | /  /          
                 / \  \   | |__| |  /  /\  \   | |_| |  |  |/  /          
                |  |  |   |  __  | /  /__\  \  |    /   |      \           
                |  |  |   | |  | | |   __   |  |    \   |  |\   \          
                \     /   | |  | | |  |  |  |  | |\  \  |  | \   \       
                 \___/    |_|  |_| |__|  |__|  |_| \__\ |__|  \__/        
                                                                              
                      - O R C A' S   B I G   F R I E N D -                    
                                      &                                       
                       - I N T E G R A L  F E E D E R -                       
                                                                              
 v1 FN, 2020, v2 2021, v3 2022-2024                                           
------------------------------------------------------------------------------


----------------------
SHARK INTEGRAL PACKAGE
----------------------

Number of atoms                             ...     24
Number of basis functions                   ...    264
Number of shells                            ...    144
Maximum angular momentum                    ...      2
Integral batch strategy                     ... SHARK/LIBINT Hybrid
RI-J (if used) integral strategy            ... SPLIT-RIJ (Revised 2003 algorithm where possible)
Printlevel                                  ...      1
Contraction scheme used                     ... SEGMENTED contraction
Prescreening option                         ... SCHWARTZ
   Thresh                                   ... 2.500e-11
   Tcut                                     ... 2.500e-12
   Tpresel                                  ... 2.500e-12 
Coulomb Range Separation                    ... NOT USED
Exchange Range Separation                   ... NOT USED
Multipole approximations                    ... NOT USED
Finite Nucleus Model                        ... NOT USED
CABS basis                                  ... NOT available
Auxiliary Coulomb fitting basis             ... AVAILABLE
   # of basis functions in Aux-J            ...    432
   # of shells in Aux-J                     ...    192
   Maximum angular momentum in Aux-J        ...      2
Auxiliary J/K fitting basis                 ... NOT available
Auxiliary Correlation fitting basis         ... NOT available
Auxiliary 'external' fitting basis          ... NOT available

Checking pre-screening integrals            ... done (  0.0 sec) Dimension = 144
   => SHARK Basis and OBASIS are compatible. Storing Pre-screening
Shell pair information
Shell pair cut-off parameter TPreSel        ...   2.5e-12
Total number of shell pairs                 ...     10440
Shell pairs after pre-screening             ...      9148
Total number of primitive shell pairs       ...     38526
Primitive shell pairs kept                  ...     22702
          la=0 lb=0:   3874 shell pairs
          la=1 lb=0:   3204 shell pairs
          la=1 lb=1:    652 shell pairs
          la=2 lb=0:    936 shell pairs
          la=2 lb=1:    412 shell pairs
          la=2 lb=2:     70 shell pairs

Checking whether 4 symmetric matrices of dimension 264 fit in memory
:Max Core in MB      =   2500.00
 MB in use           =     13.22
 MB left             =   2486.78
 MB needed           =      1.07
 Data fit in memory  = YES
Calculating RI/J V-Matrix + Cholesky decomp.... done (  0.1 sec)
Calculating Nuclear repulsion               ... done (  0.0 sec) ENN=    620.972234342863 Eh

Diagonalization of the overlap matrix:
Smallest eigenvalue                        ... 9.768e-06
Time for diagonalization                   ...    0.017 sec
Threshold for overlap eigenvalues          ... 1.000e-07
Number of eigenvalues below threshold      ... 0
Time for construction of square roots      ...    0.020 sec
Total time needed                          ...    0.091 sec

-------------------
DFT GRID GENERATION
-------------------

General Integration Accuracy     IntAcc      ... 4.388
Radial Grid Type                 RadialGrid  ... OptM3 with GC (2021)
Angular Grid (max. ang.)         AngularGrid ... 4 (Lebedev-302)
Angular grid pruning method      GridPruning ... 4 (adaptive)
Weight generation scheme         WeightScheme... mBecke (2022)
Basis function cutoff            BFCut       ... 1.0000e-11
Integration weight cutoff        WCut        ... 1.0000e-14
Partially contracted basis set               ... off
Rotationally invariant grid construction     ... off
Angular grids for H and He will be reduced by one unit

Total number of grid points                  ...   110196
Total number of batches                      ...     1731
Average number of points per batch           ...       63
Average number of grid points per atom       ...     4592
Grids setup in   1.6 sec
Initializing property integral containers    ... done (  0.0 sec)

SHARK setup successfully completed in   2.5 seconds

Maximum memory used throughout the entire STARTUP-calculation: 34.8 MB


           ************************************************************
           *        Program running with 4 parallel MPI-processes     *
           *              working on a common directory               *
           ************************************************************
Occupation numbers will be reassigned to an Aufbau configuration
             **** ENERGY FILE WAS UPDATED (dimero_PD.en.tmp) ****
Finished Guess after   0.1 sec
Maximum memory used throughout the entire GUESS-calculation: 17.4 MB


           ************************************************************
           *        Program running with 4 parallel MPI-processes     *
           *              working on a common directory               *
           ************************************************************
----------------------------------------D-I-I-S--------------------------------------------
Iteration    Energy (Eh)           Delta-E    RMSDP     MaxDP     DIISErr   Damp  Time(sec)
-------------------------------------------------------------------------------------------
               ***  Starting incremental Fock matrix formation  ***
                              *** Initializing SOSCF ***
---------------------------------------S-O-S-C-F--------------------------------------
Iteration    Energy (Eh)           Delta-E    RMSDP     MaxDP     MaxGrad    Time(sec)
--------------------------------------------------------------------------------------
    1    -464.1260525155697678     0.00e+00  7.82e-04  7.67e-03  3.47e-04     1.0
               *** Restarting incremental Fock matrix formation ***
    2    -464.1261582314999714    -1.06e-04  5.73e-04  8.79e-03  5.96e-04     0.8
    3    -464.1261441832799619     1.40e-05  2.88e-04  4.76e-03  8.33e-04     0.7
    4    -464.1261764428967354    -3.23e-05  3.45e-05  2.34e-04  1.31e-04     0.7
    5    -464.1261748865039181     1.56e-06  2.51e-05  1.93e-04  2.97e-04     0.7
    6    -464.1261768318796612    -1.95e-06  1.01e-05  1.63e-04  1.18e-05     0.7
    7    -464.1261768323569186    -4.77e-10  6.69e-06  8.86e-05  9.50e-06     0.7
                 **** Energy Check signals convergence ****

               *****************************************************
               *                     SUCCESS                       *
               *           SCF CONVERGED AFTER   7 CYCLES          *
               *****************************************************

             **** ENERGY FILE WAS UPDATED (dimero_PD.en.tmp) ****

----------------
TOTAL SCF ENERGY
----------------

Total Energy       :       -464.12617683755514 Eh          -12629.51534 eV

Components:
Nuclear Repulsion  :        620.97223434286309 Eh           16897.51355 eV
Electronic Energy  :      -1085.09841118041822 Eh          -29527.02889 eV
One Electron Energy:      -1857.15369829634960 Eh          -50535.72132 eV
Two Electron Energy:        772.05528711593138 Eh           21008.69242 eV

Virial components:
Potential Energy   :       -926.49716293406141 Eh          -25211.26952 eV
Kinetic Energy     :        462.37098609650633 Eh           12581.75418 eV
Virial Ratio       :          2.00379606591639

DFT components:
N(Alpha)           :       42.000054662419 electrons
N(Beta)            :       42.000054662419 electrons
N(Total)           :       84.000109324838 electrons
E(XC)              :      -69.189320261618 Eh       

---------------
SCF CONVERGENCE
---------------

  Last Energy change         ...    4.7726e-10  Tolerance :   1.0000e-08
  Last MAX-Density change    ...    8.8555e-05  Tolerance :   1.0000e-07
  Last RMS-Density change    ...    6.6858e-06  Tolerance :   5.0000e-09
  Last DIIS Error            ...    2.3910e-03  Tolerance :   5.0000e-07
  Last Orbital Gradient      ...    9.4959e-06  Tolerance :   1.0000e-05
  Last Orbital Rotation      ...    1.4468e-05  Tolerance :   1.0000e-05


Total SCF time: 0 days 0 hours 0 min 5 sec 
Finished LeanSCF after   6.0 sec

Maximum memory used throughout the entire LEANSCF-calculation: 20.5 MB


           ************************************************************
           *        Program running with 4 parallel MPI-processes     *
           *              working on a common directory               *
           ************************************************************

------------------------------------------------------------------------------
                         ORCA PROPERTY INTEGRAL CALCULATIONS
------------------------------------------------------------------------------

GBWName                                   ... dimero_PD.gbw
Number of atoms                           ...     24
Number of basis functions                 ...    264
Max core memory                           ...   2500 MB

Dipole integrals                          ... YES
Quadrupole integrals                      ...  NO
Linear momentum integrals                 ...  NO
Angular momentum integrals                ...  NO
Higher moments length integrals           ...  NO
Higher moments velocity integrals         ...  NO
Kinetic energy integrals                  ...  NO
GIAO right hand sides                     ...  NO
GIAO dipole derivative integrals          ...  NO
SOC integrals                             ...  NO
EPR diamagnetic integrals (GIAO)          ...  NO
EPR gauge integrals                       ...  NO
Field gradient integrals                  ...  NO (   0 nuclei)
Spin-dipole/Fermi contact integrals       ...  NO (   0 nuclei)
Contact density integrals                 ...  NO (   0 nuclei)
Nucleus-orbit integrals                   ...  NO (   0 nuclei)
Geometric perturbations                   ...  NO (  24 nuclei)

Choice of electric origin   ... Center of mass
Position of electric origin ... ( -0.0000,  0.0000,  0.0000) 
Choice of magnetic origin   ... GIAO
Position of magnetic origin ... (  0.0000,  0.0000,  0.0000) 

Calculating integrals                     ... Electric Dipole (Length)     done (  0.0 sec)

Property integrals calculated in   0.0 sec

Maximum memory used throughout the entire PROPINT-calculation: 17.4 MB


-------------------------------------------------------------------------------
                          DFT DISPERSION CORRECTION                            
                                                                               
                              DFTD3 V3.1  Rev 1                                
                          USING Becke-Johnson damping                          
-------------------------------------------------------------------------------
-------------------------   ----------------
Dispersion correction           -0.059713279
-------------------------   ----------------

------------------   -----------------
SRB correction            -0.079379256
------------------   -----------------

-------------------------   --------------------
FINAL SINGLE POINT ENERGY      -464.265269372246
-------------------------   --------------------



           ************************************************************
           *        Program running with 4 parallel MPI-processes     *
           *              working on a common directory               *
           ************************************************************
------------------------------------------------------------------------------
                         ORCA SCF GRADIENT CALCULATION
------------------------------------------------------------------------------

Nuc. rep. gradient        (SHARK) ... done (  0.0 sec)
HCore & Overlap gradient  (SHARK) ... done (  0.3 sec)
Split-RIJ-J gradient      (SHARK) ... done (  0.8 sec)
XC gradient                       ... done (  4.3 sec)
Dispersion correction             ... done (  0.0 sec)

-------------------
DISPERSION GRADIENT
-------------------

   1   C   :   -0.000169339    0.000626744   -0.000699261
   2   C   :    0.000350645    0.000335989   -0.001045957
   3   C   :    0.000350726   -0.000336060   -0.001045939
   4   C   :   -0.000169307   -0.000626621   -0.000699216
   5   C   :   -0.000625945   -0.000291309   -0.000451935
   6   C   :   -0.000625846    0.000291265   -0.000451916
   7   H   :   -0.000035622    0.000444297   -0.000133996
   8   H   :    0.000356740    0.000244727   -0.000305157
   9   H   :    0.000356738   -0.000244734   -0.000305149
  10   H   :   -0.000035605   -0.000444281   -0.000133992
  11   H   :   -0.000376403   -0.000207267   -0.000053945
  12   H   :   -0.000376398    0.000207269   -0.000053963
  13   C   :    0.000169331    0.000626790    0.000699233
  14   C   :    0.000625769    0.000291267    0.000451912
  15   C   :    0.000625807   -0.000291312    0.000451920
  16   C   :    0.000169305   -0.000626689    0.000699230
  17   C   :   -0.000350605   -0.000336065    0.001045960
  18   C   :   -0.000350560    0.000335985    0.001045952
  19   H   :    0.000035623    0.000444300    0.000133988
  20   H   :    0.000376403    0.000207262    0.000053965
  21   H   :    0.000376401   -0.000207264    0.000053956
  22   H   :    0.000035611   -0.000444286    0.000133985
  23   H   :   -0.000356731   -0.000244731    0.000305159
  24   H   :   -0.000356741    0.000244726    0.000305165

Difference to translation invariance:
           :    0.0000000000   -0.0000000000    0.0000000000

Difference to rotation invariance:
           :    0.0000000000    0.0000000000   -0.0000000000

Norm of the Dispersion gradient    ...    0.0037975977
RMS gradient                       ...    0.0004475512
MAX gradient                       ...    0.0010459600
SRB correction                   ... done

------------------
CARTESIAN GRADIENT
------------------

   1   C   :   -0.000065829    0.001868050    0.000268205
   2   C   :    0.001429444    0.001078046    0.000331631
   3   C   :    0.001440013   -0.001090569    0.000347439
   4   C   :   -0.000065144   -0.001855323    0.000251045
   5   C   :   -0.001346616   -0.000460115   -0.000241427
   6   C   :   -0.001337017    0.000455811   -0.000272464
   7   H   :   -0.000035429    0.000116394   -0.000186172
   8   H   :    0.000248794    0.000251437   -0.000569850
   9   H   :    0.000249004   -0.000251049   -0.000566237
  10   H   :   -0.000032615   -0.000111114   -0.000192697
  11   H   :   -0.000142709   -0.000089302    0.000010861
  12   H   :   -0.000140305    0.000087779    0.000008533
  13   C   :    0.000060713    0.001883654   -0.000262660
  14   C   :    0.001338084    0.000447315    0.000265556
  15   C   :    0.001332872   -0.000456716    0.000256429
  16   C   :    0.000056067   -0.001859401   -0.000259217
  17   C   :   -0.001419322   -0.001086397   -0.000344814
  18   C   :   -0.001424623    0.001071169   -0.000335715
  19   H   :    0.000036186    0.000116820    0.000185412
  20   H   :    0.000138475    0.000088124   -0.000009990
  21   H   :    0.000140948   -0.000089179   -0.000012365
  22   H   :    0.000034803   -0.000114090    0.000190206
  23   H   :   -0.000248282   -0.000252472    0.000568763
  24   H   :   -0.000247510    0.000251127    0.000569528

Difference to translation invariance:
           :    0.0000000000    0.0000000000    0.0000000000

Difference to rotation invariance:
           :   -0.0000000165    0.0000769051    0.0000000066

Norm of the Cartesian gradient     ...    0.0061558966
RMS gradient                       ...    0.0007254794
MAX gradient                       ...    0.0018836541

-------
TIMINGS
-------

Total SCF gradient time     ....        5.347 sec

Densities                   ....       0.001 sec  (  0.0%)
One electron gradient       ....       0.266 sec  (  5.0%)
RI-J Coulomb gradient       ....       0.754 sec  ( 14.1%)
XC gradient                 ....       4.276 sec  ( 80.0%)

Maximum memory used throughout the entire SCFGRAD-calculation: 37.0 MB
------------------------------------------------------------------------------
                         ORCA GEOMETRY RELAXATION STEP
------------------------------------------------------------------------------

Reading the OPT-File                    .... done
Getting information on internals        .... done
Copying old internal coords+grads       .... done
Making the new internal coordinates     .... (2022 redundants) done
Validating the new internal coordinates .... (2022 redundants) done
Calculating the B-matrix                .... done
Calculating the G,G- and P matrices     .... done
Transforming gradient to internals      .... done
Projecting the internal gradient        .... done
Number of atoms                         ....  24
Number of internal coordinates          .... 1130
Current Energy                          ....  -464.265269372 Eh
Current gradient norm                   ....     0.006155897 Eh/bohr
Maximum allowed component of the step   ....  0.300
Current trust radius                    ....  0.300
Updating the Hessian (BFGS)             .... done
Forming the augmented Hessian           .... done
Diagonalizing the augmented Hessian     .... done
Last element of RFO vector              ....  0.999553559
Lowest eigenvalues of augmented Hessian:
 -0.000087456  0.010736319  0.014020385  0.018179837  0.018338787
Length of the computed step             ....  0.029891155
The final length of the internal step   ....  0.029891155
Converting the step to Cartesian space:
 Initial RMS(Int)=    0.0008892082
Transforming coordinates:
 Iter   0:  RMS(Cart)=    0.0023636833 RMS(Int)=    0.6474389730
done
Storing new coordinates                 .... done
The predicted energy change is          ....    -0.000043767
Previously predicted energy change      ....    -0.000644370
Actually observed energy change         ....    -0.000772886
Ratio of predicted to observed change   ....     1.199444247
New trust radius                        ....     0.450000000

                                .--------------------.
          ----------------------|Geometry convergence|-------------------------
          Item                value                   Tolerance       Converged
          ---------------------------------------------------------------------
          Energy change      -0.0007728859            0.0000050000      NO
          RMS gradient        0.0001271330            0.0001000000      NO
          MAX gradient        0.0009268871            0.0003000000      NO
          RMS step            0.0008892082            0.0020000000      YES
          MAX step            0.0049976510            0.0040000000      NO
          -------------------------------------------------------------------------
          ........................................................
          Max(Bonds)      0.0026      Max(Angles)    0.07
          Max(Dihed)        0.07      Max(Improp)    0.00
          ---------------------------------------------------------------------

The optimization has not yet converged - more geometry cycles are needed


    ---------------------------------------------------------------------------
                         Redundant Internal Coordinates
                            (Angstroem and degrees)

        Definition                    Value    dE/dq     Step     New-Value
    ----------------------------------------------------------------------------
     1. B(C   1,C   0)                1.3897  0.000841 -0.0019    1.3878   
     2. B(C   2,C   1)                1.3893  0.000718 -0.0022    1.3871   
     3. B(C   3,C   2)                1.3897  0.000845 -0.0019    1.3878   
     4. B(C   4,C   3)                1.3896  0.000923 -0.0019    1.3877   
     5. B(C   5,C   4)                1.3898  0.000732 -0.0016    1.3882   
     6. B(C   5,C   0)                1.3896  0.000927 -0.0019    1.3877   
     7. B(H   6,C   0)                1.0824  0.000139 -0.0003    1.0821   
     8. B(H   7,C   1)                1.0821 -0.000172 -0.0006    1.0815   
     9. B(H   8,C   2)                1.0821 -0.000167 -0.0006    1.0815   
    10. B(H   9,C   3)                1.0824  0.000155 -0.0003    1.0821   
    11. B(H  10,C   4)                1.0826  0.000097 -0.0003    1.0823   
    12. B(H  11,C   5)                1.0826  0.000105 -0.0003    1.0823   
    13. B(C  12,C   5)                4.6142  0.000545 -0.0020    4.6122   
    14. B(C  12,C   0)                3.9392 -0.000106 -0.0004    3.9388   
    15. B(C  12,C   2)                4.1793  0.000302 -0.0015    4.1778   
    16. B(C  12,H   7)                3.6457 -0.000268 -0.0007    3.6450   
    17. B(C  12,C   1)                3.6886 -0.000240 -0.0001    3.6885   
    18. B(C  12,H   8)                4.4899  0.000376 -0.0026    4.4874   
    19. B(C  12,H   6)                4.0855 -0.000037 -0.0007    4.0848   
    20. B(C  13,C  12)                1.3896  0.000907 -0.0019    1.3877   
    21. B(C  13,C   0)                4.6142  0.000542 -0.0020    4.6122   
    22. B(C  13,C   1)                3.9392 -0.000101 -0.0007    3.9385   
    23. B(C  13,C   2)                4.1771  0.000155 -0.0013    4.1758   
    24. B(C  13,H   7)                3.7011 -0.000254 -0.0010    3.7001   
    25. B(C  13,H   8)                4.1392  0.000078 -0.0018    4.1374   
    26. B(C  14,C  13)                1.3898  0.000780 -0.0017    1.3882   
    27. B(C  14,C   3)                4.6142  0.000542 -0.0020    4.6122   
    28. B(C  14,C   2)                3.9391 -0.000094 -0.0007    3.9384   
    29. B(C  14,H   8)                3.7011 -0.000254 -0.0009    3.7001   
    30. B(C  14,C   1)                4.1770  0.000159 -0.0013    4.1758   
    31. B(C  14,H   7)                4.1392  0.000088 -0.0019    4.1373   
    32. B(C  15,H   8)                3.6457 -0.000269 -0.0006    3.6451   
    33. B(C  15,C   4)                4.6142  0.000557 -0.0020    4.6121   
    34. B(C  15,H   7)                4.4899  0.000384 -0.0026    4.4873   
    35. B(C  15,C   3)                3.9393 -0.000107 -0.0004    3.9389   
    36. B(C  15,C   1)                4.1793  0.000308 -0.0015    4.1778   
    37. B(C  15,C  14)                1.3896  0.000906 -0.0019    1.3877   
    38. B(C  15,H   9)                4.0857 -0.000058 -0.0007    4.0851   
    39. B(C  15,C   2)                3.6886 -0.000233 -0.0001    3.6885   
    40. B(C  16,H   9)                4.0355 -0.000028 -0.0006    4.0349   
    41. B(C  16,C   1)                3.9441  0.000197 -0.0012    3.9429   
    42. B(C  16,C   4)                3.9391 -0.000083 -0.0007    3.9383   
    43. B(C  16,H   7)                4.4444  0.000354 -0.0026    4.4418   
    44. B(C  16,H  10)                4.4374 -0.000017 -0.0007    4.4367   
    45. B(C  16,C   0)                4.1792  0.000321 -0.0015    4.1777   
    46. B(C  16,C   5)                4.1770  0.000162 -0.0013    4.1757   
    47. B(C  16,H   8)                4.0397  0.000075 -0.0016    4.0381   
    48. B(C  16,C   2)                3.6913 -0.000067 -0.0005    3.6908   
    49. B(C  16,C   3)                3.6886 -0.000237 -0.0001    3.6885   
    50. B(C  16,C  15)                1.3897  0.000835 -0.0019    1.3878   
    51. B(C  17,H   7)                4.0397  0.000075 -0.0017    4.0380   
    52. B(C  17,H   6)                4.0353 -0.000008 -0.0007    4.0346   
    53. B(C  17,C   5)                3.9391 -0.000092 -0.0007    3.9384   
    54. B(C  17,C   0)                3.6886 -0.000233 -0.0001    3.6885   
    55. B(C  17,H  11)                4.4375 -0.000024 -0.0007    4.4368   
    56. B(C  17,C   2)                3.9441  0.000194 -0.0013    3.9429   
    57. B(C  17,H   8)                4.4444  0.000349 -0.0026    4.4418   
    58. B(C  17,C   3)                4.1793  0.000314 -0.0016    4.1777   
    59. B(C  17,C   4)                4.1770  0.000169 -0.0013    4.1756   
    60. B(C  17,C  16)                1.3893  0.000761 -0.0022    1.3871   
    61. B(C  17,C  12)                1.3897  0.000827 -0.0019    1.3878   
    62. B(C  17,C   1)                3.6913 -0.000071 -0.0005    3.6909   
    63. B(H  18,C   1)                4.0353 -0.000012 -0.0007    4.0347   
    64. B(H  18,H   6)                3.9398 -0.000050 -0.0009    3.9389   
    65. B(H  18,H   7)                3.8468 -0.000020 -0.0011    3.8457   
    66. B(H  18,C  12)                1.0824  0.000139 -0.0003    1.0821   
    67. B(H  18,C   0)                4.0855 -0.000039 -0.0007    4.0848   
    68. B(H  19,H   8)                4.6520  0.000217 -0.0019    4.6501   
    69. B(H  19,H   7)                3.9408 -0.000146 -0.0008    3.9399   
    70. B(H  19,C   1)                4.4375 -0.000024 -0.0007    4.4368   
    71. B(H  19,C  13)                1.0826  0.000106 -0.0003    1.0823   
    72. B(H  20,H   8)                3.9407 -0.000145 -0.0008    3.9399   
    73. B(H  20,H   7)                4.6519  0.000225 -0.0019    4.6500   
    74. B(H  20,C  14)                1.0826  0.000100 -0.0003    1.0823   
    75. B(H  20,C   2)                4.4374 -0.000017 -0.0007    4.4367   
    76. B(H  21,C   2)                4.0354 -0.000011 -0.0006    4.0347   
    77. B(H  21,H   9)                3.9401 -0.000084 -0.0008    3.9393   
    78. B(H  21,C  15)                1.0824  0.000141 -0.0003    1.0821   
    79. B(H  21,H   8)                3.8468 -0.000028 -0.0010    3.8459   
    80. B(H  21,C   3)                4.0856 -0.000048 -0.0007    4.0849   
    81. B(H  22,C   2)                4.0397  0.000078 -0.0017    4.0380   
    82. B(H  22,C   3)                3.6457 -0.000270 -0.0007    3.6450   
    83. B(H  22,H  11)                4.6519  0.000224 -0.0020    4.6500   
    84. B(H  22,H   8)                4.4925  0.000170 -0.0026    4.4899   
    85. B(H  22,C  16)                1.0821 -0.000175 -0.0006    1.0815   
    86. B(H  22,H  10)                3.9407 -0.000135 -0.0009    3.9398   
    87. B(H  22,C   0)                4.4898  0.000398 -0.0026    4.4872   
    88. B(H  22,C   1)                4.4444  0.000352 -0.0026    4.4418   
    89. B(H  22,H   9)                3.8470 -0.000049 -0.0010    3.8460   
    90. B(H  22,C   4)                3.7010 -0.000234 -0.0010    3.6999   
    91. B(H  22,C   5)                4.1392  0.000089 -0.0019    4.1373   
    92. B(H  23,C   0)                3.6456 -0.000269 -0.0005    3.6451   
    93. B(H  23,H  11)                3.9407 -0.000151 -0.0007    3.9400   
    94. B(H  23,H  10)                4.6519  0.000227 -0.0019    4.6500   
    95. B(H  23,C  17)                1.0821 -0.000172 -0.0006    1.0815   
    96. B(H  23,H   7)                4.4925  0.000167 -0.0026    4.4899   
    97. B(H  23,C   3)                4.4899  0.000389 -0.0026    4.4873   
    98. B(H  23,C   2)                4.4444  0.000346 -0.0025    4.4419   
    99. B(H  23,H   6)                3.8468 -0.000030 -0.0010    3.8458   
   100. B(H  23,C   4)                4.1391  0.000093 -0.0018    4.1373   
   101. B(H  23,C   5)                3.7011 -0.000249 -0.0009    3.7001   
   102. B(H  23,C   1)                4.0397  0.000071 -0.0015    4.0381   
   103. A(C   1,C   0,C   5)          120.02 -0.000011    0.01    120.03   
   104. A(H   6,C   0,C  13)           98.67  0.000055   -0.03     98.64   
   105. A(C   1,C   0,C  17)           79.26 -0.000006   -0.00     79.26   
   106. A(C   5,C   0,C  17)           89.89 -0.000081    0.00     89.89   
   107. A(H   6,C   0,C  12)           90.02  0.000014   -0.01     90.00   
   108. A(C   5,C   0,C  16)           80.34 -0.000113    0.02     80.36   
   109. A(C  12,C   0,C  16)           34.33  0.000177   -0.04     34.28   
   110. A(C  12,C   0,C  13)           16.38  0.000078   -0.01     16.37   
   111. A(C   1,C   0,C  13)           53.07 -0.000133    0.03     53.10   
   112. A(C   1,C   0,H   6)          119.99  0.000022   -0.01    119.99   
   113. A(C   5,C   0,C  13)          116.77  0.000064   -0.02    116.75   
   114. A(C  16,C   0,C  17)           19.06  0.000081   -0.02     19.03   
   115. A(C  13,C   0,C  16)           36.43  0.000177   -0.03     36.39   
   116. A(C  13,C   0,C  17)           31.25  0.000164   -0.03     31.22   
   117. A(H   6,C   0,C  16)          119.93  0.000166   -0.05    119.88   
   118. A(C  12,C   0,C  17)           20.66  0.000124   -0.03     20.63   
   119. A(C   5,C   0,C  12)          110.55  0.000043   -0.02    110.52   
   120. A(C   1,C   0,C  16)           70.69 -0.000041    0.01     70.70   
   121. A(C   5,C   0,H   6)          119.99 -0.000012   -0.01    119.98   
   122. A(C   1,C   0,C  12)           69.45 -0.000055    0.01     69.46   
   123. A(H   6,C   0,C  17)          100.88  0.000085   -0.03    100.85   
   124. A(C  13,C   1,C  14)           19.43  0.000098   -0.02     19.42   
   125. A(C   2,C   1,C  12)          100.86  0.000075   -0.02    100.84   
   126. A(C  14,C   1,C  16)           34.33  0.000191   -0.04     34.30   
   127. A(C   2,C   1,C  13)           90.00  0.000005    0.00     90.01   
   128. A(C   0,C   1,C  16)           89.89 -0.000058    0.01     89.90   
   129. A(C   0,C   1,C  15)          109.31  0.000040   -0.01    109.30   
   130. A(C  13,C   1,C  16)           41.29  0.000236   -0.05     41.24   
   131. A(H   7,C   1,C  14)           80.54 -0.000024   -0.03     80.51   
   132. A(H   7,C   1,C  15)           99.68  0.000082   -0.05     99.63   
   133. A(C   0,C   1,C  12)           89.89 -0.000072    0.01     89.90   
   134. A(C   2,C   1,C  17)           90.00  0.000003   -0.00     90.00   
   135. A(H   7,C   1,C  16)          110.76  0.000152   -0.07    110.69   
   136. A(C  16,C   1,C  17)           20.62  0.000099   -0.03     20.60   
   137. A(C   0,C   1,C  13)          110.55  0.000064   -0.01    110.53   
   138. A(C   0,C   1,C  14)          119.82  0.000110   -0.02    119.80   
   139. A(H   7,C   1,C  12)           79.27 -0.000009   -0.03     79.25   
   140. A(H   7,C   1,C  13)           69.47 -0.000084   -0.02     69.45   
   141. A(C   0,C   1,C   2)          119.99  0.000014   -0.00    119.99   
   142. A(C  12,C   1,C  13)           20.66  0.000135   -0.03     20.63   
   143. A(C   2,C   1,H   7)          120.00 -0.000024   -0.00    120.00   
   144. A(C  15,C   1,C  16)           19.42  0.000098   -0.02     19.40   
   145. A(C   0,C   1,H   7)          120.00  0.000010    0.00    120.01   
   146. A(C  13,C   1,C  15)           34.33  0.000186   -0.04     34.29   
   147. A(C   2,C   1,C  16)           69.38 -0.000096    0.03     69.40   
   148. A(C  15,C   1,C  17)           34.92  0.000182   -0.04     34.87   
   149. A(C   2,C   1,C  15)           60.09 -0.000151    0.04     60.13   
   150. A(H   7,C   1,C  17)          100.98  0.000120   -0.06    100.93   
   151. A(C  14,C   1,C  17)           40.79  0.000236   -0.05     40.74   
   152. A(C   0,C   1,C  17)           79.03 -0.000125    0.03     79.06   
   153. A(C  14,C   1,C  15)           19.14  0.000106   -0.02     19.12   
   154. A(C  12,C   1,C  15)           40.77  0.000226   -0.05     40.72   
   155. A(C   2,C   1,C  14)           70.57 -0.000093    0.02     70.59   
   156. A(C  12,C   1,C  17)           21.71  0.000129   -0.03     21.68   
   157. A(C  13,C   1,C  17)           36.60  0.000228   -0.04     36.55   
   158. A(C  12,C   1,C  16)           36.57  0.000201   -0.05     36.52   
   159. A(C  12,C   1,C  14)           34.94  0.000203   -0.04     34.90   
   160. A(C   1,C   2,H   8)          120.00 -0.000026   -0.00    120.00   
   161. A(C  15,C   2,C  17)           36.56  0.000202   -0.05     36.52   
   162. A(C  15,C   2,C  16)           21.71  0.000130   -0.03     21.68   
   163. A(C   1,C   2,C  12)           60.09 -0.000151    0.04     60.13   
   164. A(C  14,C   2,C  16)           36.60  0.000228   -0.04     36.55   
   165. A(C   1,C   2,C  17)           69.37 -0.000096    0.03     69.40   
   166. A(C  12,C   2,C  13)           19.14  0.000107   -0.02     19.12   
   167. A(C   1,C   2,C  14)           90.00  0.000004    0.01     90.01   
   168. A(C  12,C   2,C  17)           19.42  0.000097   -0.02     19.40   
   169. A(C   3,C   2,C  14)          110.55  0.000059   -0.01    110.54   
   170. A(C   3,C   2,C  16)           79.04 -0.000129    0.03     79.06   
   171. A(H   8,C   2,C  14)           69.47 -0.000087   -0.02     69.45   
   172. A(H   8,C   2,C  16)          100.98  0.000116   -0.05    100.93   
   173. A(C  13,C   2,C  14)           19.43  0.000098   -0.02     19.42   
   174. A(C  12,C   2,C  16)           34.92  0.000181   -0.04     34.87   
   175. A(C  14,C   2,C  17)           41.29  0.000236   -0.05     41.24   
   176. A(H   8,C   2,C  15)           79.27 -0.000014   -0.02     79.25   
   177. A(C   3,C   2,C  15)           89.89 -0.000076    0.01     89.91   
   178. A(C   3,C   2,C  13)          119.82  0.000107   -0.02    119.81   
   179. A(C   1,C   2,C  13)           70.57 -0.000094    0.02     70.59   
   180. A(C   3,C   2,H   8)          120.00  0.000007    0.00    120.01   
   181. A(C  13,C   2,C  15)           34.94  0.000202   -0.04     34.90   
   182. A(H   8,C   2,C  17)          110.76  0.000149   -0.06    110.70   
   183. A(C  12,C   2,C  15)           40.77  0.000227   -0.05     40.72   
   184. A(C  12,C   2,C  14)           34.33  0.000186   -0.04     34.29   
   185. A(C   3,C   2,C  12)          109.31  0.000037   -0.01    109.30   
   186. A(C   1,C   2,C  16)           90.00  0.000003    0.00     90.00   
   187. A(H   8,C   2,C  13)           80.54 -0.000027   -0.03     80.51   
   188. A(C   1,C   2,C   3)          119.99  0.000019    0.00    119.99   
   189. A(C   3,C   2,C  17)           89.89 -0.000060    0.01     89.90   
   190. A(C  13,C   2,C  17)           34.33  0.000191   -0.03     34.30   
   191. A(C  16,C   2,C  17)           20.62  0.000099   -0.03     20.60   
   192. A(H   8,C   2,C  12)           99.69  0.000080   -0.05     99.64   
   193. A(C  14,C   2,C  15)           20.66  0.000135   -0.03     20.63   
   194. A(C   1,C   2,C  15)          100.86  0.000075   -0.01    100.84   
   195. A(C  13,C   2,C  16)           40.79  0.000236   -0.05     40.74   
   196. A(C  14,C   3,C  15)           16.38  0.000078   -0.01     16.37   
   197. A(C   2,C   3,C  14)           53.07 -0.000129    0.03     53.10   
   198. A(C   4,C   3,C  16)           89.88 -0.000075    0.00     89.89   
   199. A(C   2,C   3,C  16)           79.25 -0.000003    0.00     79.25   
   200. A(H   9,C   3,C  16)          100.88  0.000073   -0.02    100.86   
   201. A(C  15,C   3,C  17)           34.33  0.000179   -0.04     34.28   
   202. A(C  16,C   3,C  17)           19.05  0.000082   -0.02     19.03   
   203. A(C   4,C   3,C  17)           80.33 -0.000108    0.02     80.35   
   204. A(C   2,C   3,C  17)           70.69 -0.000039    0.01     70.70   
   205. A(C   2,C   3,C   4)          120.02 -0.000013    0.01    120.04   
   206. A(C  15,C   3,C  16)           20.66  0.000125   -0.03     20.63   
   207. A(C  14,C   3,C  17)           36.43  0.000178   -0.03     36.39   
   208. A(C   2,C   3,H   9)          119.99  0.000025   -0.01    119.98   
   209. A(H   9,C   3,C  17)          119.94  0.000154   -0.04    119.89   
   210. A(H   9,C   3,C  15)           90.02  0.000002   -0.01     90.01   
   211. A(C   4,C   3,C  15)          110.54  0.000050   -0.02    110.52   
   212. A(C   2,C   3,C  15)           69.45 -0.000051    0.01     69.46   
   213. A(H   9,C   3,C  14)           98.68  0.000045   -0.02     98.65   
   214. A(C   4,C   3,H   9)          119.99 -0.000012   -0.01    119.98   
   215. A(C   4,C   3,C  14)          116.76  0.000070   -0.02    116.75   
   216. A(C  14,C   3,C  16)           31.25  0.000165   -0.03     31.22   
   217. A(C   3,C   4,H  10)          120.01  0.000020    0.01    120.02   
   218. A(C   3,C   4,C  16)           69.46 -0.000062    0.02     69.48   
   219. A(C   5,C   4,C  17)           70.57 -0.000096    0.02     70.59   
   220. A(C   5,C   4,H  10)          120.01 -0.000016    0.01    120.01   
   221. A(H  10,C   4,C  17)          119.89  0.000039   -0.00    119.89   
   222. A(C   3,C   4,C  17)           80.52 -0.000000    0.00     80.52   
   223. A(C   3,C   4,C   5)          119.98 -0.000004   -0.01    119.97   
   224. A(H  10,C   4,C  16)          110.61  0.000005    0.01    110.62   
   225. A(H  10,C   4,C  15)          116.82  0.000022    0.00    116.82   
   226. A(C  15,C   4,C  16)           16.38  0.000068   -0.01     16.37   
   227. A(C   5,C   4,C  15)           98.66  0.000042   -0.01     98.65   
   228. A(C   3,C   4,C  15)           53.08 -0.000129    0.04     53.11   
   229. A(C  16,C   4,C  17)           19.43  0.000095   -0.03     19.40   
   230. A(C   5,C   4,C  16)           90.00 -0.000001   -0.00     90.00   
   231. A(C  15,C   4,C  17)           31.27  0.000145   -0.04     31.24   
   232. A(C  12,C   5,C  16)           31.27  0.000145   -0.04     31.24   
   233. A(C   0,C   5,C   4)          119.99 -0.000005   -0.01    119.97   
   234. A(H  11,C   5,C  17)          110.61  0.000004    0.01    110.62   
   235. A(C   4,C   5,C  17)           89.99  0.000005   -0.01     89.99   
   236. A(C   0,C   5,C  17)           69.45 -0.000056    0.02     69.48   
   237. A(C  16,C   5,C  17)           19.43  0.000095   -0.03     19.40   
   238. A(H  11,C   5,C  16)          119.89  0.000038   -0.00    119.89   
   239. A(C   4,C   5,C  16)           70.57 -0.000090    0.02     70.59   
   240. A(C   0,C   5,C  16)           80.52  0.000005    0.00     80.52   
   241. A(C   4,C   5,H  11)          120.01 -0.000015    0.01    120.01   
   242. A(C   0,C   5,H  11)          120.01  0.000020    0.01    120.02   
   243. A(C  12,C   5,C  17)           16.38  0.000067   -0.01     16.37   
   244. A(H  11,C   5,C  12)          116.81  0.000021    0.00    116.82   
   245. A(C   4,C   5,C  12)           98.66  0.000047   -0.01     98.64   
   246. A(C   0,C   5,C  12)           53.07 -0.000123    0.04     53.11   
   247. A(C   1,C  12,C   2)           19.05  0.000076   -0.02     19.03   
   248. A(C   2,C  12,H  18)          119.93  0.000163   -0.05    119.88   
   249. A(C   2,C  12,C  17)           70.69 -0.000035    0.01     70.70   
   250. A(C   2,C  12,C  13)           80.34 -0.000108    0.02     80.36   
   251. A(C   1,C  12,H  18)          100.88  0.000086   -0.03    100.85   
   252. A(C   1,C  12,C  17)           79.26 -0.000002   -0.00     79.25   
   253. A(C  17,C  12,H  18)          119.99  0.000017   -0.01    119.99   
   254. A(C   1,C  12,C  13)           89.89 -0.000079    0.00     89.89   
   255. A(C  13,C  12,H  18)          119.99 -0.000010   -0.01    119.98   
   256. A(C   0,C  12,C   5)           16.38  0.000081   -0.01     16.37   
   257. A(C   0,C  12,C   1)           20.66  0.000126   -0.03     20.63   
   258. A(C   0,C  12,H  18)           90.02  0.000013   -0.01     90.00   
   259. A(C   0,C  12,C  17)           69.45 -0.000052    0.01     69.46   
   260. A(C   0,C  12,C  13)          110.55  0.000047   -0.02    110.52   
   261. A(C  13,C  12,C  17)          120.02 -0.000007    0.01    120.03   
   262. A(C   0,C  12,C   2)           34.33  0.000175   -0.04     34.28   
   263. A(C   2,C  12,C   5)           36.43  0.000177   -0.03     36.39   
   264. A(C   1,C  12,C   5)           31.25  0.000168   -0.03     31.22   
   265. A(C   5,C  12,H  18)           98.67  0.000055   -0.03     98.64   
   266. A(C   5,C  12,C  17)           53.07 -0.000132    0.02     53.10   
   267. A(C   5,C  12,C  13)          116.77  0.000069   -0.02    116.75   
   268. A(C   1,C  13,H  19)          110.61  0.000009    0.01    110.62   
   269. A(C   1,C  13,C  14)           89.99 -0.000002   -0.00     89.99   
   270. A(C   1,C  13,C  12)           69.45 -0.000056    0.02     69.48   
   271. A(C  14,C  13,H  19)          120.01 -0.000014    0.00    120.01   
   272. A(C  12,C  13,H  19)          120.01  0.000020    0.01    120.01   
   273. A(C   0,C  13,C  14)           98.66  0.000042   -0.01     98.64   
   274. A(C   1,C  13,C   2)           19.43  0.000089   -0.03     19.40   
   275. A(C   2,C  13,H  19)          119.89  0.000042   -0.00    119.89   
   276. A(C   2,C  13,C  14)           70.57 -0.000091    0.02     70.59   
   277. A(C   2,C  13,C  12)           80.52  0.000001    0.00     80.52   
   278. A(C  12,C  13,C  14)          119.99 -0.000006   -0.01    119.97   
   279. A(C   0,C  13,C   2)           31.27  0.000142   -0.04     31.24   
   280. A(C   0,C  13,C   1)           16.38  0.000069   -0.01     16.37   
   281. A(C   0,C  13,H  19)          116.82  0.000026    0.00    116.82   
   282. A(C   0,C  13,C  12)           53.07 -0.000125    0.04     53.11   
   283. A(C   1,C  14,C   3)           31.27  0.000144   -0.04     31.24   
   284. A(C   2,C  14,C   3)           16.38  0.000070   -0.01     16.37   
   285. A(C   3,C  14,H  20)          116.81  0.000028    0.00    116.82   
   286. A(C   3,C  14,C  13)           98.66  0.000038   -0.01     98.65   
   287. A(C  15,C  14,H  20)          120.01  0.000019    0.01    120.01   
   288. A(C  13,C  14,H  20)          120.01 -0.000012    0.01    120.01   
   289. A(C   2,C  14,H  20)          110.61  0.000012    0.01    110.62   
   290. A(C   2,C  14,C  15)           69.46 -0.000056    0.02     69.48   
   291. A(C   2,C  14,C  13)           90.00 -0.000006   -0.00     89.99   
   292. A(C   1,C  14,C   2)           19.43  0.000089   -0.03     19.40   
   293. A(C   1,C  14,H  20)          119.89  0.000043   -0.00    119.89   
   294. A(C   1,C  14,C  15)           80.52  0.000002    0.00     80.52   
   295. A(C   1,C  14,C  13)           70.57 -0.000096    0.02     70.59   
   296. A(C  13,C  14,C  15)          119.99 -0.000007   -0.01    119.97   
   297. A(C   3,C  14,C  15)           53.07 -0.000126    0.04     53.11   
   298. A(C  14,C  15,H  21)          119.99 -0.000009   -0.01    119.98   
   299. A(C   1,C  15,C   3)           34.33  0.000176   -0.04     34.28   
   300. A(C   1,C  15,C   2)           19.06  0.000076   -0.02     19.03   
   301. A(C   1,C  15,H  21)          119.93  0.000159   -0.05    119.88   
   302. A(C   1,C  15,C  16)           70.69 -0.000036    0.01     70.70   
   303. A(C   1,C  15,C  14)           80.34 -0.000109    0.02     80.36   
   304. A(C   2,C  15,H  21)          100.88  0.000083   -0.02    100.85   
   305. A(C   2,C  15,C  16)           79.26 -0.000004   -0.00     79.25   
   306. A(C   2,C  15,C  14)           89.89 -0.000079    0.00     89.89   
   307. A(C  14,C  15,C  16)          120.02 -0.000009    0.01    120.03   
   308. A(C   2,C  15,C   3)           20.66  0.000127   -0.03     20.63   
   309. A(C   3,C  15,H  21)           90.02  0.000009   -0.01     90.01   
   310. A(C   3,C  15,C  16)           69.45 -0.000053    0.01     69.46   
   311. A(C   3,C  15,C  14)          110.55  0.000048   -0.02    110.52   
   312. A(C   1,C  15,C   4)           36.43  0.000177   -0.03     36.39   
   313. A(C   2,C  15,C   4)           31.25  0.000166   -0.03     31.22   
   314. A(C   4,C  15,C  16)           53.07 -0.000132    0.02     53.09   
   315. A(C   4,C  15,C  14)          116.77  0.000068   -0.02    116.75   
   316. A(C   3,C  15,C   4)           16.38  0.000079   -0.01     16.37   
   317. A(C   4,C  15,H  21)           98.67  0.000051   -0.02     98.65   
   318. A(C  16,C  15,H  21)          119.99  0.000018   -0.01    119.99   
   319. A(C   2,C  16,C   4)           36.60  0.000230   -0.04     36.55   
   320. A(C   3,C  16,C   4)           20.66  0.000137   -0.03     20.63   
   321. A(C   4,C  16,H  22)           69.47 -0.000083   -0.02     69.45   
   322. A(C   4,C  16,C  17)           90.00 -0.000002    0.00     90.01   
   323. A(C   4,C  16,C  15)          110.55  0.000064   -0.01    110.54   
   324. A(C   3,C  16,H  22)           79.27 -0.000012   -0.03     79.25   
   325. A(C   3,C  16,C  17)          100.86  0.000070   -0.02    100.84   
   326. A(C   3,C  16,C  15)           89.89 -0.000072    0.02     89.91   
   327. A(C   0,C  16,C   5)           19.14  0.000109   -0.02     19.13   
   328. A(C   0,C  16,C   1)           19.42  0.000099   -0.02     19.40   
   329. A(C   0,C  16,C   4)           34.33  0.000182   -0.04     34.29   
   330. A(C   0,C  16,C   2)           34.92  0.000176   -0.04     34.87   
   331. A(C   0,C  16,C   3)           40.77  0.000222   -0.05     40.71   
   332. A(C   0,C  16,H  22)           99.68  0.000084   -0.05     99.63   
   333. A(C   0,C  16,C  17)           60.09 -0.000152    0.04     60.13   
   334. A(C   0,C  16,C  15)          109.31  0.000037   -0.01    109.30   
   335. A(C  15,C  16,C  17)          119.99  0.000015    0.00    119.99   
   336. A(C   1,C  16,C   5)           34.33  0.000194   -0.04     34.30   
   337. A(C   4,C  16,C   5)           19.43  0.000091   -0.02     19.42   
   338. A(C   2,C  16,C   5)           40.79  0.000234   -0.05     40.74   
   339. A(C   3,C  16,C   5)           34.94  0.000199   -0.04     34.90   
   340. A(C   5,C  16,H  22)           80.54 -0.000025   -0.03     80.51   
   341. A(C   5,C  16,C  17)           70.57 -0.000093    0.02     70.59   
   342. A(C   5,C  16,C  15)          119.82  0.000108   -0.02    119.81   
   343. A(C   2,C  16,C   3)           21.71  0.000132   -0.03     21.68   
   344. A(C   1,C  16,C   4)           41.29  0.000235   -0.05     41.24   
   345. A(C   2,C  16,H  22)          100.98  0.000120   -0.05    100.93   
   346. A(C   1,C  16,C   2)           20.62  0.000093   -0.03     20.60   
   347. A(C   2,C  16,C  17)           90.00 -0.000004   -0.00     90.00   
   348. A(C   1,C  16,C   3)           36.56  0.000198   -0.05     36.52   
   349. A(C   2,C  16,C  15)           79.04 -0.000126    0.03     79.06   
   350. A(C   1,C  16,H  22)          110.76  0.000152   -0.07    110.69   
   351. A(C   1,C  16,C  17)           69.38 -0.000097    0.03     69.40   
   352. A(C   1,C  16,C  15)           89.89 -0.000062    0.01     89.90   
   353. A(C  17,C  16,H  22)          120.00 -0.000017   -0.00    120.00   
   354. A(C  15,C  16,H  22)          120.00  0.000003    0.00    120.01   
   355. A(C   3,C  17,C   4)           19.14  0.000108   -0.02     19.13   
   356. A(C   2,C  17,C   3)           19.42  0.000099   -0.02     19.40   
   357. A(C   3,C  17,C   5)           34.33  0.000182   -0.04     34.29   
   358. A(C   1,C  17,C   3)           34.91  0.000178   -0.04     34.87   
   359. A(C   1,C  17,C   5)           36.60  0.000231   -0.04     36.55   
   360. A(C   0,C  17,C   3)           40.77  0.000222   -0.05     40.71   
   361. A(C   3,C  17,H  23)           99.68  0.000082   -0.05     99.64   
   362. A(C   0,C  17,C   5)           20.66  0.000138   -0.03     20.63   
   363. A(C   3,C  17,C  16)           60.09 -0.000151    0.04     60.13   
   364. A(C   3,C  17,C  12)          109.31  0.000037   -0.01    109.30   
   365. A(C   5,C  17,H  23)           69.47 -0.000085   -0.02     69.45   
   366. A(C   5,C  17,C  16)           90.00 -0.000002    0.01     90.01   
   367. A(C   2,C  17,C   4)           34.33  0.000193   -0.03     34.30   
   368. A(C   5,C  17,C  12)          110.55  0.000065   -0.01    110.54   
   369. A(C  12,C  17,C  16)          120.00  0.000014    0.00    120.00   
   370. A(C   4,C  17,C   5)           19.43  0.000091   -0.02     19.42   
   371. A(C   1,C  17,C   4)           40.79  0.000235   -0.05     40.74   
   372. A(C   0,C  17,C   4)           34.94  0.000198   -0.04     34.90   
   373. A(C   4,C  17,H  23)           80.54 -0.000027   -0.03     80.51   
   374. A(C   4,C  17,C  16)           70.57 -0.000092    0.02     70.59   
   375. A(C   4,C  17,C  12)          119.82  0.000108   -0.02    119.81   
   376. A(C   0,C  17,H  23)           79.27 -0.000013   -0.02     79.25   
   377. A(C   0,C  17,C  16)          100.86  0.000071   -0.01    100.84   
   378. A(C   0,C  17,C  12)           89.89 -0.000072    0.02     89.91   
   379. A(C  16,C  17,H  23)          120.00 -0.000018   -0.00    120.00   
   380. A(C  12,C  17,H  23)          120.00  0.000003    0.00    120.01   
   381. A(C   2,C  17,C   5)           41.29  0.000235   -0.05     41.24   
   382. A(C   0,C  17,C   1)           21.71  0.000131   -0.03     21.68   
   383. A(C   1,C  17,C   2)           20.62  0.000093   -0.03     20.60   
   384. A(C   1,C  17,H  23)          100.98  0.000118   -0.05    100.93   
   385. A(C   0,C  17,C   2)           36.56  0.000197   -0.05     36.52   
   386. A(C   2,C  17,H  23)          110.76  0.000149   -0.06    110.70   
   387. A(C   1,C  17,C  16)           90.00 -0.000002    0.00     90.00   
   388. A(C   2,C  17,C  16)           69.37 -0.000095    0.03     69.40   
   389. A(C   2,C  17,C  12)           89.89 -0.000062    0.01     89.90   
   390. A(C   1,C  17,C  12)           79.04 -0.000127    0.03     79.06   
   391. D(C   2,C   1,C   0,C  12)    102.50  0.000047   -0.01    102.49   
   392. D(C  12,C   1,C   0,C   5)   -102.49 -0.000026    0.03   -102.47   
   393. D(C  12,C   1,C   0,C  17)    -18.92 -0.000122    0.03    -18.89   
   394. D(H   7,C   1,C   0,C  12)    -77.52  0.000055    0.02    -77.50   
   395. D(C   2,C   1,C   0,C   5)      0.00  0.000021    0.02      0.02   
   396. D(C  12,C   1,C   0,C  13)      0.00  0.000009    0.01      0.01   
   397. D(C  17,C   1,C   0,H   6)     96.44  0.000092   -0.03     96.41   
   398. D(H   7,C   1,C   0,C  16)   -114.09 -0.000146    0.07   -114.02   
   399. D(H   7,C   1,C   0,C  17)    -96.44 -0.000068    0.05    -96.39   
   400. D(H   7,C   1,C   0,H   6)      0.00  0.000025    0.02      0.02   
   401. D(C  12,C   1,C   0,C  16)    -36.57 -0.000201    0.05    -36.52   
   402. D(C   2,C   1,C   0,C  16)     65.93 -0.000154    0.04     65.97   
   403. D(H   7,C   1,C   0,C  13)    -77.52  0.000064    0.03    -77.49   
   404. D(C  17,C   1,C   0,C  12)     18.92  0.000122   -0.03     18.89   
   405. D(C  17,C   1,C   0,C   5)    -83.58  0.000097    0.00    -83.58   
   406. D(H   7,C   1,C   0,C   5)    179.98  0.000029    0.05    180.03   
   407. D(C  12,C   1,C   0,H   6)     77.53 -0.000030   -0.01     77.52   
   408. D(C   2,C   1,C   0,C  17)     83.58 -0.000076    0.02     83.59   
   409. D(C   2,C   1,C   0,C  13)    102.50  0.000056   -0.00    102.50   
   410. D(C   2,C   1,C   0,H   6)   -179.98  0.000017   -0.02   -179.99   
   411. D(C  17,C   1,C   0,C  16)    -17.65 -0.000078    0.02    -17.62   
   412. D(C   3,C   2,C   1,C  13)    113.91  0.000077   -0.01    113.90   
   413. D(C  15,C   2,C   1,C  13)     17.68  0.000116   -0.02     17.66   
   414. D(C  15,C   2,C   1,C  16)    -18.91 -0.000111    0.02    -18.89   
   415. D(H   8,C   2,C   1,C  12)    -83.80 -0.000024    0.04    -83.76   
   416. D(C  15,C   2,C   1,C  12)      0.00 -0.000001   -0.00      0.00   
   417. D(H   8,C   2,C   1,C   0)    179.98  0.000012    0.03    180.01   
   418. D(H   8,C   2,C   1,C  16)   -102.71 -0.000134    0.06   -102.65   
   419. D(H   8,C   2,C   1,H   7)      0.00  0.000004   -0.01     -0.01   
   420. D(C   3,C   2,C   1,C   0)      0.00 -0.000005    0.00      0.00   
   421. D(H   8,C   2,C   1,C  15)    -83.80 -0.000023    0.04    -83.76   
   422. D(H   8,C   2,C   1,C  17)   -102.71 -0.000134    0.06   -102.65   
   423. D(C   3,C   2,C   1,H   7)   -179.98 -0.000013   -0.03   -180.01   
   424. D(H   8,C   2,C   1,C  14)    -66.11  0.000094    0.02    -66.10   
   425. D(C   3,C   2,C   1,C  14)    113.91  0.000077   -0.01    113.90   
   426. D(C  16,C   2,C   1,C   0)    -77.31  0.000145   -0.03    -77.34   
   427. D(C   3,C   2,C   1,C  16)     77.32 -0.000150    0.03     77.35   
   428. D(C  15,C   2,C   1,C   0)    -96.22  0.000034   -0.01    -96.23   
   429. D(C   3,C   2,C   1,C  15)     96.23 -0.000039    0.01     96.24   
   430. D(C   3,C   2,C   1,C  17)     77.32 -0.000151    0.03     77.35   
   431. D(C  15,C   2,C   1,C  14)     17.68  0.000117   -0.02     17.66   
   432. D(C  15,C   2,C   1,C  17)    -18.91 -0.000111    0.02    -18.89   
   433. D(H   8,C   2,C   1,C  13)    -66.11  0.000093    0.02    -66.10   
   434. D(C   3,C   2,C   1,C  12)     96.23 -0.000041    0.01     96.24   
   435. D(C  15,C   2,C   1,H   7)     83.80  0.000027   -0.04     83.75   
   436. D(C   4,C   3,C   2,C  17)     65.92 -0.000165    0.02     65.94   
   437. D(H   9,C   3,C   2,C  16)    -96.45 -0.000079    0.02    -96.43   
   438. D(H   9,C   3,C   2,C  13)    -96.45 -0.000055    0.03    -96.43   
   439. D(C  16,C   3,C   2,H   8)     96.44  0.000062   -0.05     96.40   
   440. D(H   9,C   3,C   2,C  14)    -77.53  0.000054    0.00    -77.53   
   441. D(H   9,C   3,C   2,C  17)   -114.10 -0.000157    0.05   -114.05   
   442. D(C   4,C   3,C   2,H   8)   -179.99 -0.000025   -0.04   -180.03   
   443. D(H   9,C   3,C   2,H   8)     -0.01 -0.000017   -0.02     -0.03   
   444. D(C   4,C   3,C   2,C  13)     83.56 -0.000062    0.00     83.57   
   445. D(C   4,C   3,C   2,C   1)     -0.01 -0.000008   -0.02     -0.03   
   446. D(C   4,C   3,C   2,C  12)     65.92 -0.000164    0.02     65.94   
   447. D(C  16,C   3,C   2,C   1)    -83.58  0.000079   -0.02    -83.60   
   448. D(C   4,C   3,C   2,C  14)    102.49  0.000046   -0.02    102.47   
   449. D(C   4,C   3,C   2,C  16)     83.57 -0.000087    0.00     83.57   
   450. D(H   9,C   3,C   2,C   1)    179.97 -0.000001    0.01    179.97   
   451. D(H   9,C   3,C   2,C  12)   -114.10 -0.000156    0.05   -114.05   
   452. D(C   4,C   3,C   2,C  15)    102.48  0.000037   -0.02    102.46   
   453. D(C  16,C   3,C   2,C  17)    -17.65 -0.000078    0.02    -17.62   
   454. D(H   9,C   3,C   2,C  15)    -77.53  0.000044   -0.00    -77.54   
   455. D(C  16,C   3,C   2,C  15)     18.92  0.000124   -0.03     18.89   
   456. D(C  16,C   3,C   2,C  14)     18.92  0.000133   -0.02     18.90   
   457. D(H  10,C   4,C   3,C  15)   -102.57  0.000038   -0.01   -102.58   
   458. D(H  10,C   4,C   3,C  17)   -119.15 -0.000048   -0.00   -119.15   
   459. D(H  10,C   4,C   3,C  14)   -119.14 -0.000053    0.01   -119.13   
   460. D(C  16,C   4,C   3,H   9)    102.52  0.000038   -0.02    102.50   
   461. D(H  10,C   4,C   3,H   9)     -0.06  0.000069   -0.04     -0.10   
   462. D(H  10,C   4,C   3,C  16)   -102.58  0.000030   -0.02   -102.60   
   463. D(C   5,C   4,C   3,C   2)      0.02  0.000005    0.02      0.04   
   464. D(C   5,C   4,C   3,C  15)     77.52 -0.000033    0.02     77.54   
   465. D(C   5,C   4,C   3,C  16)     77.51 -0.000041    0.02     77.53   
   466. D(C   5,C   4,C   3,C  17)     60.94 -0.000119    0.04     60.98   
   467. D(C  16,C   4,C   3,C  17)    -16.57 -0.000078    0.02    -16.55   
   468. D(C   5,C   4,C   3,H   9)   -179.97 -0.000003   -0.01   -179.97   
   469. D(C  16,C   4,C   3,C   2)    -77.50  0.000046   -0.00    -77.50   
   470. D(C   5,C   4,C   3,C  14)     60.95 -0.000124    0.05     61.00   
   471. D(C  16,C   4,C   3,C  15)      0.00  0.000008    0.01      0.01   
   472. D(H  10,C   4,C   3,C   2)    179.93  0.000076   -0.02    179.91   
   473. D(H  11,C   5,C   4,C  15)   -127.94 -0.000057    0.01   -127.94   
   474. D(C  17,C   5,C   4,C  16)     -0.00  0.000001   -0.00     -0.00   
   475. D(H  11,C   5,C   0,C  17)    102.57 -0.000029    0.02    102.59   
   476. D(C  17,C   5,C   4,H  10)    113.99  0.000002    0.01    114.00   
   477. D(C  17,C   5,C   4,C  15)    -13.96 -0.000053    0.01    -13.95   
   478. D(H  11,C   5,C   4,H  10)      0.00 -0.000002    0.00      0.01   
   479. D(C   4,C   5,C   0,C   1)      0.00 -0.000024   -0.02     -0.02   
   480. D(C  17,C   5,C   0,H   6)   -102.52 -0.000049    0.03   -102.48   
   481. D(C   4,C   5,C   0,C  13)    -60.94  0.000111   -0.04    -60.98   
   482. D(C   4,C   5,C   0,C  16)    -60.93  0.000107   -0.03    -60.97   
   483. D(H  11,C   5,C   0,C  16)    119.14  0.000049   -0.00    119.14   
   484. D(C  17,C   5,C   0,C  16)     16.57  0.000078   -0.02     16.55   
   485. D(H  11,C   5,C   0,C  12)    102.57 -0.000037    0.01    102.58   
   486. D(C  17,C   5,C   4,C   3)    -66.10  0.000073   -0.03    -66.13   
   487. D(C   0,C   5,C   4,H  10)   -179.92 -0.000060    0.04   -179.88   
   488. D(C   0,C   5,C   4,C  15)     52.13 -0.000115    0.04     52.17   
   489. D(C   0,C   5,C   4,C  17)     66.09 -0.000062    0.03     66.12   
   490. D(H  11,C   5,C   4,C   3)    179.91  0.000069   -0.03    179.88   
   491. D(H  11,C   5,C   4,C  17)   -113.98 -0.000004   -0.01   -113.99   
   492. D(C   0,C   5,C   4,C   3)     -0.01  0.000011   -0.00     -0.01   
   493. D(C  17,C   5,C   0,C   1)     77.50 -0.000053   -0.00     77.50   
   494. D(C  17,C   5,C   0,C  12)     -0.00 -0.000008   -0.01     -0.01   
   495. D(C   4,C   5,C   0,C  12)    -77.51  0.000021   -0.02    -77.53   
   496. D(H  11,C   5,C   0,C   1)   -179.92 -0.000082    0.02   -179.91   
   497. D(H  11,C   5,C   0,C  13)    119.13  0.000053   -0.01    119.12   
   498. D(C   0,C   5,C   4,C  16)     66.09 -0.000061    0.03     66.12   
   499. D(C   4,C   5,C   0,H   6)    179.98 -0.000020    0.02    180.00   
   500. D(H  11,C   5,C   4,C  16)   -113.98 -0.000004   -0.01   -113.99   
   501. D(H  11,C   5,C   0,H   6)      0.06 -0.000078    0.05      0.11   
   502. D(C   4,C   5,C   0,C  17)    -77.50  0.000029   -0.02    -77.52   
   503. D(H  18,C  12,C   0,C  17)   -122.26 -0.000025    0.00   -122.26   
   504. D(C  17,C  12,C   0,C  13)   -115.47  0.000031   -0.02   -115.49   
   505. D(H  18,C  12,C   0,C   5)   -122.25 -0.000002    0.02   -122.23   
   506. D(C  13,C  12,C   0,C   1)      0.01  0.000026    0.02      0.03   
   507. D(C  13,C  12,C   0,C   5)    115.48 -0.000009    0.04    115.52   
   508. D(C  17,C  12,C   0,C   1)   -115.46  0.000057   -0.01   -115.47   
   509. D(C  13,C  12,C   0,C  17)    115.47 -0.000031    0.02    115.49   
   510. D(H  18,C  12,C   0,C   1)    122.28  0.000032   -0.00    122.28   
   511. D(C  17,C  12,C   0,H   6)    122.28  0.000026   -0.00    122.28   
   512. D(C  13,C  12,C   0,H   6)   -122.25 -0.000005    0.02   -122.23   
   513. D(H  18,C  12,C   0,H   6)      0.02  0.000001    0.00      0.02   
   514. D(C  13,C  12,C   0,C  16)     85.57 -0.000015    0.03     85.60   
   515. D(C  17,C  12,C   0,C  16)    -29.90  0.000016    0.00    -29.89   
   516. D(H  18,C  12,C   2,C  14)    147.42 -0.000063    0.01    147.42   
   517. D(C  13,C  12,C   2,C  15)     60.86  0.000049    0.01     60.87   
   518. D(C  17,C  12,C   0,C   5)      0.01  0.000022    0.02      0.03   
   519. D(C  17,C  12,C   5,H  11)     71.29  0.000048    0.00     71.29   
   520. D(C  13,C  12,C   5,C   4)     49.98 -0.000071    0.04     50.02   
   521. D(C   1,C  12,C   5,C   4)     83.32 -0.000067    0.01     83.33   
   522. D(H  18,C  12,C   5,C  16)   -154.00 -0.000022    0.01   -153.99   
   523. D(C  17,C  12,C   1,C  14)    -91.21 -0.000021   -0.00    -91.21   
   524. D(H  18,C  12,C   1,C   0)    -59.42  0.000006    0.01    -59.41   
   525. D(H  18,C  12,C   5,C   4)   -179.98  0.000003   -0.00   -179.99   
   526. D(C   1,C  12,C   5,C   0)    -37.88 -0.000058    0.03    -37.85   
   527. D(C  17,C  12,C   5,C   4)    -58.79  0.000018    0.00    -58.78   
   528. D(H  18,C  12,C   1,C  13)    120.57 -0.000018   -0.01    120.56   
   529. D(H  18,C  12,C   1,C  16)   -149.38  0.000007    0.01   -149.38   
   530. D(C  17,C  12,C   5,C   0)   -179.99  0.000026    0.02   -179.96   
   531. D(C  13,C  12,C   5,C  17)    108.77 -0.000088    0.03    108.81   
   532. D(C  17,C  12,C   2,C  16)    -31.33  0.000023    0.00    -31.33   
   533. D(H  18,C  12,C   1,C  14)    149.99 -0.000028    0.00    150.00   
   534. D(C  13,C  12,C   2,C   3)    126.69  0.000066   -0.00    126.69   
   535. D(C  13,C  12,C   5,C   0)    -71.21 -0.000062    0.06    -71.16   
   536. D(H  18,C  12,C   2,C  17)   -114.17  0.000018   -0.00   -114.18   
   537. D(H  18,C  12,C   2,C  16)   -145.50  0.000041   -0.00   -145.50   
   538. D(H  18,C  12,C   2,C  15)   -180.00 -0.000003    0.01   -179.99   
   539. D(H  18,C  12,C   2,C   3)   -114.17  0.000015   -0.00   -114.17   
   540. D(C  17,C  12,C   2,C   1)    114.18 -0.000018    0.01    114.19   
   541. D(H  18,C  12,C   2,H   8)    119.15 -0.000056    0.02    119.18   
   542. D(C  13,C  12,C   1,C  16)     90.05  0.000025    0.02     90.06   
   543. D(C  17,C  12,C   2,C  15)    -65.82 -0.000020    0.01    -65.81   
   544. D(C  13,C  12,C   1,C  14)     29.42 -0.000010    0.01     29.43   
   545. D(C  17,C  12,C   2,C   3)      0.00 -0.000003   -0.00      0.00   
   546. D(C  17,C  12,C   1,C   0)     59.37  0.000014    0.00     59.38   
   547. D(C  13,C  12,C   5,C  16)     75.97 -0.000095    0.04     76.01   
   548. D(C  13,C  12,C   2,C   1)   -119.14  0.000051    0.01   -119.13   
   549. D(H  18,C  12,C   1,C   2)   -180.00 -0.000000    0.01   -179.99   
   550. D(C  17,C  12,C   2,C  14)    -98.41 -0.000081    0.01    -98.40   
   551. D(C  17,C  12,C   1,C  15)    -61.20  0.000005    0.00    -61.20   
   552. D(H  18,C  12,C   5,C  17)   -121.20 -0.000015   -0.01   -121.20   
   553. D(C  17,C  12,C   1,C  16)    -30.59  0.000015    0.00    -30.58   
   554. D(C  17,C  12,C   2,C  13)   -126.68 -0.000069   -0.00   -126.68   
   555. D(H  18,C  12,C   2,C   1)      0.00 -0.000001    0.01      0.01   
   556. D(C  13,C  12,C   2,C  17)    126.68  0.000069    0.00    126.68   
   557. D(C   1,C  12,C   0,H   6)   -122.26 -0.000031    0.00   -122.25   
   558. D(C  13,C  12,C   1,C   0)   -179.99  0.000024    0.02   -179.98   
   559. D(C  13,C  12,C   2,H   8)      0.01 -0.000005    0.03      0.04   
   560. D(C  13,C  12,C   1,H   7)    -59.38  0.000052    0.02    -59.36   
   561. D(C  13,C  12,C   1,C  15)     59.43  0.000016    0.01     59.45   
   562. D(C  17,C  12,C   1,H   7)    179.99  0.000041    0.01    180.00   
   563. D(H  18,C  12,C   0,C  16)   -152.16 -0.000009    0.01   -152.15   
   564. D(C  13,C  12,C   5,H  11)   -179.94 -0.000040    0.03   -179.91   
   565. D(C  13,C  12,C   2,C  14)     28.27 -0.000011    0.01     28.28   
   566. D(C  13,C  12,C   1,C  17)    120.63  0.000011    0.01    120.65   
   567. D(C  13,C  12,C   2,C  16)     95.35  0.000092    0.00     95.36   
   568. D(H  18,C  12,C   1,C  17)   -118.80 -0.000007    0.00   -118.79   
   569. D(H  18,C  12,C   1,H   7)     61.19  0.000034    0.01     61.20   
   570. D(C  17,C  12,C   5,C  16)    -32.80 -0.000007    0.01    -32.79   
   571. D(H  18,C  12,C   5,H  11)    -49.91  0.000034   -0.00    -49.92   
   572. D(H  18,C  12,C   5,C   0)     58.82  0.000012    0.02     58.83   
   573. D(C  13,C  12,C   1,C   2)     59.43  0.000017    0.02     59.45   
   574. D(C  17,C  12,C   1,C   2)    -61.20  0.000007    0.00    -61.20   
   575. D(C  17,C  12,C   2,H   8)   -126.68 -0.000074    0.03   -126.65   
   576. D(C  17,C  12,C   1,C  13)   -120.63 -0.000011   -0.01   -120.65   
   577. D(C   1,C  12,C   0,C   5)    115.47 -0.000035    0.02    115.50   
   578. D(H  18,C  12,C   0,C  13)    122.27  0.000006   -0.02    122.25   
   579. D(C   1,C  13,C  12,C  17)     77.50 -0.000048   -0.00     77.50   
   580. D(H  19,C  13,C  12,C   0)    102.57 -0.000032    0.01    102.58   
   581. D(C  14,C  13,C   1,H   7)   -122.27  0.000010    0.00   -122.27   
   582. D(C  14,C  13,C  12,C   5)    -60.94  0.000121   -0.04    -60.98   
   583. D(H  19,C  13,C   1,C   0)   -115.44  0.000019    0.01   -115.43   
   584. D(C  14,C  13,C  12,H  18)    179.98 -0.000015    0.01    179.99   
   585. D(H  19,C  13,C   1,C  17)   -147.71 -0.000014   -0.00   -147.71   
   586. D(H  19,C  13,C   2,C  15)    145.53 -0.000027    0.02    145.54   
   587. D(H  19,C  13,C   2,H   8)     60.75 -0.000034    0.02     60.76   
   588. D(C  14,C  13,C   2,C  17)     98.38  0.000065   -0.02     98.36   
   589. D(C  12,C  13,C   2,C  15)    -95.21  0.000003    0.03    -95.18   
   590. D(C  14,C  13,C   2,C  16)     65.87  0.000075   -0.01     65.86   
   591. D(C  14,C  13,C   2,C   3)     65.87  0.000037   -0.01     65.86   
   592. D(C  12,C  13,C   2,C  17)    -28.22  0.000029    0.00    -28.22   
   593. D(C  14,C  13,C   2,C  15)     31.39  0.000038    0.00     31.39   
   594. D(C  14,C  13,C   2,H   8)    -53.39  0.000031    0.00    -53.39   
   595. D(C  14,C  13,C   2,C  12)    126.60  0.000035   -0.03    126.58   
   596. D(C  12,C  13,C   2,H   8)   -179.99 -0.000005    0.03   -179.96   
   597. D(C  12,C  13,C   2,C   3)    -60.73  0.000002    0.01    -60.72   
   598. D(C  12,C  13,C   2,C   1)     53.40 -0.000034    0.03     53.43   
   599. D(C  14,C  13,C  12,C  17)     -0.00 -0.000011   -0.02     -0.02   
   600. D(H  19,C  13,C   1,H   7)      0.02 -0.000004    0.01      0.03   
   601. D(H  19,C  13,C   1,C   2)    122.30 -0.000013    0.01    122.30   
   602. D(C  14,C  13,C   1,C  15)     27.83  0.000004    0.01     27.84   
   603. D(C  14,C  13,C   1,C  16)     57.73  0.000003    0.01     57.74   
   604. D(C  14,C  13,C   1,C  17)     90.00  0.000000   -0.01     89.99   
   605. D(H  19,C  13,C  12,C  17)   -179.92 -0.000071    0.02   -179.91   
   606. D(C  14,C  13,C  12,C   0)    -77.51  0.000028   -0.02    -77.53   
   607. D(C  14,C  13,C   1,C  12)    122.26  0.000008   -0.02    122.24   
   608. D(C  14,C  13,C  12,C   2)    -60.94  0.000111   -0.04    -60.97   
   609. D(H  19,C  13,C  12,C   2)    119.14  0.000052   -0.00    119.14   
   610. D(C  14,C  13,C  12,C   1)    -77.50  0.000037   -0.02    -77.52   
   611. D(H  19,C  13,C   1,C  12)   -115.44 -0.000007   -0.01   -115.46   
   612. D(H  19,C  13,C   2,C  16)   -180.00  0.000010    0.01   -179.99   
   613. D(H  19,C  13,C  12,C   1)    102.57 -0.000023    0.02    102.59   
   614. D(C  14,C  13,C   1,C   2)     -0.00  0.000001    0.00      0.00   
   615. D(C  14,C  13,C   1,C   0)    122.27  0.000033   -0.00    122.27   
   616. D(H  19,C  13,C  12,C   5)    119.14  0.000061   -0.01    119.13   
   617. D(C  12,C  13,C   2,C  16)    -60.73  0.000039    0.02    -60.72   
   618. D(C  12,C  13,C   2,C  14)   -126.60 -0.000035    0.03   -126.58   
   619. D(C  12,C  13,C   1,C  15)    -94.43 -0.000003    0.03    -94.40   
   620. D(C  14,C  13,C   2,C   1)    180.00  0.000001    0.00    180.00   
   621. D(C  12,C  13,C   1,C  14)   -122.26 -0.000008    0.02   -122.24   
   622. D(H  19,C  13,C  12,H  18)      0.06 -0.000075    0.05      0.11   
   623. D(C  12,C  13,C   1,C  17)    -32.27 -0.000007    0.01    -32.25   
   624. D(H  19,C  13,C   0,C  12)   -108.73  0.000025   -0.02   -108.75   
   625. D(H  19,C  13,C   0,C   1)     71.28  0.000055    0.00     71.28   
   626. D(H  19,C  13,C   2,C   1)    -65.86 -0.000064    0.02    -65.85   
   627. D(C  14,C  13,C   0,H   6)   -179.99  0.000003   -0.00   -179.99   
   628. D(C  14,C  13,C   0,C   1)    -58.79  0.000024    0.00    -58.79   
   629. D(C  12,C  13,C   0,C  16)    -71.23 -0.000054    0.04    -71.19   
   630. D(C  12,C  13,C   0,C  17)    -37.88 -0.000057    0.03    -37.85   
   631. D(H  19,C  13,C   2,C   3)   -179.99 -0.000028    0.00   -179.99   
   632. D(C  12,C  13,C   0,H   6)     58.82  0.000009    0.02     58.83   
   633. D(C  12,C  13,C   0,C   5)    -71.21 -0.000060    0.06    -71.16   
   634. D(C  12,C  13,C   0,C   1)   -179.99  0.000030    0.02   -179.97   
   635. D(C  14,C  13,C   0,C  17)     83.32 -0.000063    0.01     83.33   
   636. D(C  14,C  13,C   0,C   5)     49.99 -0.000066    0.04     50.02   
   637. D(H  19,C  13,C   0,H   6)    -49.91  0.000034   -0.00    -49.92   
   638. D(C  14,C  13,C   0,C  16)     49.97 -0.000060    0.02     50.00   
   639. D(C  12,C  13,C   1,C  16)    -64.53 -0.000004    0.03    -64.50   
   640. D(H  19,C  13,C   0,C  17)   -146.61 -0.000032    0.01   -146.60   
   641. D(C  12,C  13,C   1,C   0)      0.01  0.000026    0.02      0.03   
   642. D(C  12,C  13,C   1,C   2)   -122.26 -0.000007    0.02   -122.24   
   643. D(C  12,C  13,C   1,H   7)    115.47  0.000002    0.02    115.48   
   644. D(C  14,C  13,C   0,C  12)    121.20 -0.000006   -0.02    121.18   
   645. D(C   1,C  13,C  12,C   2)     16.57  0.000074   -0.02     16.55   
   646. D(C   1,C  13,C  12,C   0)     -0.00 -0.000009   -0.01     -0.01   
   647. D(C   1,C  13,C  12,H  18)   -102.52 -0.000052    0.03   -102.49   
   648. D(H  19,C  13,C   0,C   5)   -179.94 -0.000035    0.04   -179.90   
   649. D(H  20,C  14,C   2,C  15)    115.44  0.000005    0.01    115.46   
   650. D(C  13,C  14,C   3,C   4)    -49.99  0.000069   -0.04    -50.03   
   651. D(C  15,C  14,C   3,C  17)     71.22  0.000057   -0.04     71.18   
   652. D(H  20,C  14,C   3,C  16)    146.61  0.000032   -0.01    146.60   
   653. D(C  15,C  14,C  13,C   0)    -52.14  0.000123   -0.04    -52.18   
   654. D(C   2,C  14,C  13,C  12)     66.09 -0.000066    0.03     66.12   
   655. D(C   2,C  14,C  13,H  19)   -113.98 -0.000007   -0.01   -113.99   
   656. D(C   2,C  14,C  13,C   0)     13.96  0.000054   -0.01     13.95   
   657. D(H  20,C  14,C  13,C   0)    127.94  0.000061   -0.01    127.94   
   658. D(C   2,C  14,C  13,C   1)      0.00 -0.000000   -0.00     -0.00   
   659. D(H  20,C  14,C  13,C   2)    113.98  0.000007    0.01    113.99   
   660. D(H  20,C  14,C  13,C   1)    113.98  0.000006    0.01    113.99   
   661. D(H  20,C  14,C  13,C  12)   -179.92 -0.000060    0.03   -179.89   
   662. D(C  15,C  14,C  13,C   2)    -66.10  0.000068   -0.03    -66.12   
   663. D(C  15,C  14,C  13,H  19)    179.92  0.000062   -0.04    179.88   
   664. D(C  15,C  14,C  13,C  12)     -0.00  0.000002   -0.00     -0.00   
   665. D(H  20,C  14,C   3,C  15)    108.73 -0.000028    0.02    108.75   
   666. D(H  20,C  14,C   3,H   9)     49.91 -0.000027    0.00     49.91   
   667. D(H  20,C  14,C   3,C   4)    179.94  0.000037   -0.03    179.90   
   668. D(H  20,C  14,C   3,C   2)    -71.28 -0.000059   -0.00    -71.28   
   669. D(C  15,C  14,C   3,C  16)     37.88  0.000060   -0.03     37.85   
   670. D(C  15,C  14,C   3,H   9)    -58.82  0.000001   -0.02    -58.84   
   671. D(C  15,C  14,C   3,C   4)     71.21  0.000065   -0.05     71.15   
   672. D(C  13,C  14,C   3,C  17)    -49.97  0.000061   -0.02    -49.99   
   673. D(C  13,C  14,C   3,C  15)   -121.20  0.000004    0.02   -121.18   
   674. D(C  13,C  14,C   3,C  16)    -83.32  0.000064   -0.01    -83.33   
   675. D(C  13,C  14,C   3,H   9)    179.98  0.000005   -0.00    179.98   
   676. D(C  13,C  14,C   3,C   2)     58.79 -0.000027   -0.00     58.79   
   677. D(H  20,C  14,C   2,C  16)    147.71  0.000015    0.00    147.71   
   678. D(H  20,C  14,C   2,H   8)     -0.02  0.000005   -0.01     -0.03   
   679. D(H  20,C  14,C   2,C   3)    115.44 -0.000021   -0.00    115.43   
   680. D(H  20,C  14,C   2,C   1)   -122.30  0.000015   -0.00   -122.30   
   681. D(C  15,C  14,C   2,C  12)     94.43  0.000004   -0.03     94.40   
   682. D(C  15,C  14,C   2,C  13)    122.26  0.000009   -0.02    122.24   
   683. D(C  15,C  14,C   2,C  17)     64.53  0.000006   -0.03     64.50   
   684. D(C  15,C  14,C   2,C  16)     32.26  0.000010   -0.01     32.25   
   685. D(C  15,C  14,C   2,H   8)   -115.47  0.000000   -0.02   -115.49   
   686. D(C  15,C  14,C   2,C   3)     -0.01 -0.000027   -0.02     -0.03   
   687. D(C  15,C  14,C   2,C   1)    122.26  0.000010   -0.02    122.24   
   688. D(C  13,C  14,C   2,C  12)    -27.83 -0.000005   -0.01    -27.84   
   689. D(C  13,C  14,C   2,C  16)    -89.99  0.000001    0.01    -89.99   
   690. D(C  13,C  14,C   2,H   8)    122.27 -0.000008   -0.00    122.27   
   691. D(C  13,C  14,C   1,C  17)    -65.87 -0.000074    0.01    -65.86   
   692. D(C  15,C  14,C   3,C   2)    179.99 -0.000031   -0.02    179.97   
   693. D(H  20,C  14,C   1,C  12)   -145.53  0.000026   -0.02   -145.54   
   694. D(C  15,C  14,C   1,C   2)    -53.40  0.000037   -0.03    -53.43   
   695. D(H  20,C  14,C   1,C   0)    179.99  0.000024   -0.00    179.99   
   696. D(C  15,C  14,C   1,C  16)     28.22 -0.000028   -0.00     28.21   
   697. D(C  15,C  14,C   1,C  17)     60.73 -0.000038   -0.02     60.72   
   698. D(C  15,C  14,C   1,C  12)     95.21 -0.000003   -0.03     95.18   
   699. D(C  15,C  14,C   1,H   7)    179.99  0.000008   -0.03    179.96   
   700. D(C  15,C  14,C   1,C  13)    126.60  0.000036   -0.03    126.57   
   701. D(H  20,C  14,C   1,C   2)     65.86  0.000066   -0.02     65.85   
   702. D(C  15,C  14,C   1,C   0)     60.73 -0.000005   -0.01     60.72   
   703. D(H  20,C  14,C   1,H   7)    -60.75  0.000037   -0.02    -60.77   
   704. D(C  15,C  14,C  13,C   1)    -66.10  0.000068   -0.03    -66.12   
   705. D(C  13,C  14,C   1,C  15)   -126.60 -0.000036    0.03   -126.57   
   706. D(C  13,C  14,C   1,C  16)    -98.38 -0.000064    0.02    -98.36   
   707. D(C  13,C  14,C   2,C   3)   -122.27 -0.000035    0.00   -122.27   
   708. D(H  20,C  14,C  13,H  19)     -0.00 -0.000000   -0.00     -0.00   
   709. D(C  13,C  14,C   1,C  12)    -31.39 -0.000039   -0.00    -31.39   
   710. D(C  13,C  14,C   1,H   7)     53.39 -0.000028   -0.00     53.39   
   711. D(C  13,C  14,C   1,C   2)    180.00  0.000001    0.00    180.00   
   712. D(C  13,C  14,C   2,C  15)   -122.26 -0.000009    0.02   -122.24   
   713. D(C  13,C  14,C   2,C   1)     -0.00  0.000001    0.00      0.00   
   714. D(C  13,C  14,C   1,C   0)    -65.87 -0.000041    0.01    -65.86   
   715. D(C  13,C  14,C   2,C  17)    -57.73 -0.000002   -0.01    -57.74   
   716. D(H  20,C  14,C   1,C  17)    179.99 -0.000009   -0.01    179.99   
   717. D(C   3,C  15,C  14,H  20)   -102.57  0.000029   -0.01   -102.58   
   718. D(C   3,C  15,C  14,C  13)     77.51 -0.000033    0.02     77.53   
   719. D(C   2,C  15,C  14,C   3)     -0.00 -0.000009   -0.01     -0.01   
   720. D(C   2,C  15,C  14,H  20)   -102.57  0.000019   -0.02   -102.59   
   721. D(C   2,C  15,C  14,C  13)     77.51 -0.000042    0.02     77.52   
   722. D(H  21,C  15,C  14,C   3)    102.52  0.000039   -0.03    102.48   
   723. D(H  21,C  15,C  14,C   2)    102.52  0.000049   -0.03    102.49   
   724. D(H  21,C  15,C  14,H  20)     -0.05  0.000068   -0.05     -0.10   
   725. D(H  21,C  15,C  14,C  13)   -179.97  0.000006   -0.01   -179.98   
   726. D(C  16,C  15,C  14,C   1)    -60.93  0.000123   -0.02    -60.95   
   727. D(C  16,C  15,C  14,C   2)    -77.50  0.000050    0.00    -77.50   
   728. D(C  16,C  15,C  14,H  20)    179.93  0.000069   -0.02    179.91   
   729. D(C  16,C  15,C  14,C  13)      0.01  0.000007    0.02      0.03   
   730. D(C   2,C  15,C   4,C   5)    -83.32  0.000065   -0.01    -83.32   
   731. D(C   2,C  15,C   4,C   3)     37.88  0.000063   -0.03     37.85   
   732. D(H  21,C  15,C   4,C  17)    154.00  0.000025   -0.01    153.99   
   733. D(H  21,C  15,C   4,H  10)     49.91 -0.000031    0.00     49.91   
   734. D(H  21,C  15,C   4,C   5)    179.99 -0.000004    0.00    179.99   
   735. D(H  21,C  15,C   4,C   3)    -58.82 -0.000007   -0.02    -58.84   
   736. D(C  16,C  15,C   4,H  10)    -71.28 -0.000050   -0.00    -71.29   
   737. D(C  16,C  15,C   4,C   5)     58.79 -0.000023   -0.00     58.79   
   738. D(C  16,C  15,C   4,C   3)    179.98 -0.000026   -0.02    179.96   
   739. D(C  14,C  15,C   4,C  16)   -108.78  0.000091   -0.03   -108.81   
   740. D(C  14,C  15,C   4,H  10)    179.94  0.000040   -0.03    179.91   
   741. D(C  14,C  15,C   4,C   5)    -49.98  0.000067   -0.03    -50.02   
   742. D(C  14,C  15,C   4,C   3)     71.21  0.000065   -0.05     71.15   
   743. D(C   2,C  15,C   3,H   9)    122.25  0.000038   -0.01    122.25   
   744. D(C   2,C  15,C   3,C   4)   -115.48  0.000038   -0.02   -115.50   
   745. D(H  21,C  15,C   3,C  14)   -122.27 -0.000006    0.02   -122.25   
   746. D(H  21,C  15,C   3,C  16)    122.26  0.000028   -0.00    122.25   
   747. D(H  21,C  15,C   3,H   9)     -0.02  0.000006   -0.01     -0.03   
   748. D(H  21,C  15,C   3,C   4)    122.24  0.000006   -0.02    122.22   
   749. D(C  16,C  15,C   3,C  14)    115.47 -0.000034    0.02    115.50   
   750. D(C  16,C  15,C   3,C  17)     29.90 -0.000017   -0.00     29.89   
   751. D(C  16,C  15,C   3,H   9)   -122.28 -0.000022   -0.00   -122.28   
   752. D(C  16,C  15,C   3,C   2)    115.46 -0.000060    0.00    115.47   
   753. D(C  14,C  15,C   3,C  17)    -85.57  0.000017   -0.03    -85.60   
   754. D(C  14,C  15,C   3,C  16)   -115.47  0.000034   -0.02   -115.50   
   755. D(C  14,C  15,C   3,H   9)    122.24  0.000012   -0.02    122.22   
   756. D(C  14,C  15,C   3,C   4)   -115.49  0.000012   -0.04   -115.53   
   757. D(C  14,C  15,C   3,C   2)     -0.01 -0.000027   -0.02     -0.03   
   758. D(H  21,C  15,C   2,C  13)   -149.99  0.000027   -0.00   -150.00   
   759. D(H  21,C  15,C   2,H   8)    -61.19 -0.000033   -0.01    -61.21   
   760. D(C  16,C  15,C   2,C  13)     91.21  0.000019    0.00     91.21   
   761. D(C  16,C  15,C   2,C   3)    -59.37 -0.000016   -0.00    -59.37   
   762. D(C  14,C  15,C   2,C  13)    -29.42  0.000010   -0.01    -29.44   
   763. D(C  14,C  15,C   2,C  17)    -90.05 -0.000024   -0.02    -90.06   
   764. D(C  16,C  15,C   3,C   4)     -0.01 -0.000022   -0.02     -0.03   
   765. D(C  14,C  15,C   2,C   1)    -59.44 -0.000014   -0.01    -59.45   
   766. D(H  21,C  15,C   1,C  12)    179.99  0.000002   -0.01    179.99   
   767. D(C  16,C  15,C   1,C  14)    126.69  0.000068    0.00    126.69   
   768. D(H  21,C  15,C   3,C   2)   -122.28 -0.000032    0.00   -122.28   
   769. D(C  16,C  15,C   1,C  12)     65.83  0.000018   -0.01     65.82   
   770. D(C  16,C  15,C   1,H   7)    126.68  0.000075   -0.03    126.65   
   771. D(C  14,C  15,C   1,C  13)    -28.27  0.000012   -0.01    -28.29   
   772. D(H  21,C  15,C   3,C  17)    152.16  0.000011   -0.01    152.15   
   773. D(C  14,C  15,C   1,C   2)    119.14 -0.000048   -0.01    119.13   
   774. D(C  14,C  15,C   1,C   0)   -126.69 -0.000070   -0.00   -126.69   
   775. D(C  14,C  15,C   1,C  17)    -95.35 -0.000092   -0.00    -95.36   
   776. D(C  16,C  15,C   1,C   0)      0.00 -0.000002   -0.00      0.00   
   777. D(C  14,C  15,C   1,C  16)   -126.69 -0.000068   -0.00   -126.69   
   778. D(C  14,C  15,C   1,C  12)    -60.86 -0.000050   -0.01    -60.87   
   779. D(C  16,C  15,C   1,C  17)     31.33 -0.000024   -0.00     31.33   
   780. D(C  14,C  15,C   4,C  17)    -75.97  0.000097   -0.04    -76.02   
   781. D(C  16,C  15,C   1,C   2)   -114.18  0.000020   -0.01   -114.18   
   782. D(H  21,C  15,C   1,C   2)     -0.01  0.000004   -0.01     -0.01   
   783. D(H  21,C  15,C   1,C   0)    114.17 -0.000018    0.00    114.17   
   784. D(C  16,C  15,C   4,C  17)     32.80  0.000006   -0.01     32.79   
   785. D(H  21,C  15,C   1,H   7)   -119.15  0.000059   -0.03   -119.18   
   786. D(H  21,C  15,C   1,C  13)   -147.42  0.000063   -0.01   -147.43   
   787. D(H  21,C  15,C   1,C  16)    114.17 -0.000016    0.00    114.17   
   788. D(H  21,C  15,C   4,C  16)    121.19  0.000019    0.00    121.20   
   789. D(H  21,C  15,C   1,C  17)    145.50 -0.000040    0.00    145.50   
   790. D(C  16,C  15,C   1,C  13)     98.41  0.000079   -0.01     98.40   
   791. D(C  14,C  15,C   1,H   7)     -0.01  0.000008   -0.03     -0.04   
   792. D(C  14,C  15,C   2,C  16)   -120.64 -0.000009   -0.01   -120.65   
   793. D(C  14,C  15,C   2,C  12)    -59.43 -0.000016   -0.01    -59.45   
   794. D(C  14,C  15,C   2,H   8)     59.38 -0.000050   -0.02     59.36   
   795. D(C  16,C  15,C   2,H   8)   -179.99 -0.000042   -0.01   -179.99   
   796. D(C  16,C  15,C  14,C   3)    -77.50  0.000040   -0.01    -77.51   
   797. D(C  16,C  15,C   2,C   1)     61.20 -0.000006   -0.00     61.20   
   798. D(C  16,C  15,C   2,C  14)    120.64  0.000009    0.01    120.65   
   799. D(C  14,C  15,C   2,C   3)    179.99 -0.000025   -0.02    179.98   
   800. D(H  21,C  15,C  14,C   1)    119.09  0.000122   -0.05    119.04   
   801. D(C  16,C  15,C   2,C  12)     61.20 -0.000007   -0.00     61.20   
   802. D(H  21,C  15,C   2,C   1)    179.99  0.000003   -0.01    179.99   
   803. D(H  21,C  15,C   2,C   3)     59.42 -0.000007   -0.01     59.41   
   804. D(C   2,C  15,C  14,C   1)     16.57  0.000073   -0.02     16.55   
   805. D(H  21,C  15,C   2,C  14)   -120.57  0.000017    0.01   -120.56   
   806. D(H  21,C  15,C   2,C  17)    149.38 -0.000007   -0.01    149.37   
   807. D(H  21,C  15,C   2,C  16)    118.79  0.000009   -0.00    118.79   
   808. D(C  16,C  15,C   2,C  17)     30.59 -0.000015   -0.00     30.59   
   809. D(C  15,C  16,C   4,C   5)   -122.27 -0.000032    0.00   -122.27   
   810. D(C  15,C  16,C   4,C   3)     -0.01 -0.000022   -0.02     -0.03   
   811. D(C   2,C  16,C   3,C  14)     29.98  0.000012    0.01     29.99   
   812. D(C   2,C  16,C   3,C  15)     59.37  0.000017    0.00     59.38   
   813. D(C   2,C  16,C   3,H   9)    118.79  0.000017   -0.00    118.79   
   814. D(C   2,C  16,C   3,C   4)   -120.64 -0.000004   -0.01   -120.65   
   815. D(H  22,C  16,C   3,C  17)    118.81 -0.000027   -0.01    118.80   
   816. D(H  22,C  16,C   3,C  15)   -120.62 -0.000020   -0.00   -120.62   
   817. D(H  22,C  16,C   3,H   9)    -61.20 -0.000020   -0.01    -61.21   
   818. D(H  22,C  16,C   3,C   4)     59.37 -0.000041   -0.02     59.35   
   819. D(H  22,C  16,C   3,C   2)   -179.99 -0.000037   -0.01   -179.99   
   820. D(C  17,C  16,C   3,C  14)     91.18  0.000001    0.01     91.19   
   821. D(C  17,C  16,C   3,C  15)    120.58  0.000007    0.00    120.58   
   822. D(C  17,C  16,C   3,C   4)    -59.44 -0.000014   -0.02    -59.45   
   823. D(C  17,C  16,C   3,C   2)     61.20 -0.000010   -0.00     61.20   
   824. D(C  15,C  16,C   3,C  14)    -29.39 -0.000005    0.00    -29.39   
   825. D(C  15,C  16,C   3,H   9)     59.42 -0.000000   -0.01     59.41   
   826. D(C  15,C  16,C   3,C   4)    179.99 -0.000021   -0.02    179.97   
   827. D(C  15,C  16,C   3,C   2)    -59.37 -0.000017   -0.00    -59.38   
   828. D(C   3,C  16,C   2,C   1)    120.61  0.000033   -0.00    120.61   
   829. D(H  22,C  16,C   2,C  12)    150.02 -0.000019   -0.00    150.02   
   830. D(H  22,C  16,C   2,C  13)   -179.99 -0.000005   -0.01   -180.00   
   831. D(H  22,C  16,C   2,C  17)    120.62 -0.000005   -0.01    120.61   
   832. D(H  22,C  16,C   2,C  14)   -149.37 -0.000002   -0.00   -149.38   
   833. D(H  22,C  16,C   2,C  15)   -118.77  0.000025   -0.01   -118.78   
   834. D(H  22,C  16,C   2,H   8)   -118.75 -0.000016   -0.02   -118.77   
   835. D(H  22,C  16,C   2,C   1)    120.62 -0.000004   -0.01    120.61   
   836. D(C  17,C  16,C   2,C  12)     29.40 -0.000014    0.01     29.40   
   837. D(C  17,C  16,C   2,C  13)     59.39  0.000001    0.01     59.39   
   838. D(C  17,C  16,C   2,C  15)    120.61  0.000030   -0.00    120.61   
   839. D(C  17,C  16,C   2,H   8)    120.62 -0.000011   -0.01    120.61   
   840. D(C  17,C  16,C   2,C   3)   -120.61 -0.000032    0.00   -120.61   
   841. D(C  15,C  16,C   2,C  12)    -91.21 -0.000045    0.01    -91.20   
   842. D(C  15,C  16,C   2,C  13)    -61.22 -0.000030    0.01    -61.22   
   843. D(C  15,C  16,C   2,C  17)   -120.61 -0.000030    0.00   -120.61   
   844. D(C  15,C  16,C   2,C  14)    -30.61 -0.000027    0.01    -30.60   
   845. D(C  15,C  16,C   2,H   8)      0.01 -0.000042   -0.01      0.01   
   846. D(C  15,C  16,C   2,C   3)    118.78 -0.000063    0.01    118.79   
   847. D(C  15,C  16,C   2,C   1)   -120.61 -0.000029    0.00   -120.61   
   848. D(C   3,C  16,C   1,C   2)    -32.30 -0.000028    0.00    -32.30   
   849. D(C   3,C  16,C   1,C   0)     90.03  0.000036   -0.01     90.02   
   850. D(H  22,C  16,C   1,C  15)   -122.28 -0.000012    0.01   -122.27   
   851. D(H  22,C  16,C   1,C  14)   -150.07  0.000001    0.01   -150.06   
   852. D(H  22,C  16,C   1,C  13)   -180.00  0.000002    0.01   -179.99   
   853. D(H  22,C  16,C   1,C  17)    115.39 -0.000079    0.02    115.40   
   854. D(H  22,C  16,C   1,C  12)    147.69 -0.000056    0.02    147.70   
   855. D(H  22,C  16,C   1,H   7)    180.00  0.000008   -0.00    180.00   
   856. D(H  22,C  16,C   1,C   2)    -64.61 -0.000078    0.02    -64.60   
   857. D(H  22,C  16,C   1,C   0)     57.72 -0.000013    0.01     57.73   
   858. D(C  17,C  16,C   1,C  15)    122.33  0.000067   -0.01    122.32   
   859. D(C  17,C  16,C   1,C  14)     94.54  0.000080   -0.01     94.53   
   860. D(C  17,C  16,C   2,C   1)     -0.00  0.000001    0.00     -0.00   
   861. D(C  17,C  16,C   1,C  13)     64.62  0.000080   -0.01     64.60   
   862. D(C  17,C  16,C   1,C  12)     32.30  0.000023   -0.00     32.30   
   863. D(C  17,C  16,C   1,H   7)     64.61  0.000087   -0.02     64.59   
   864. D(C  17,C  16,C   2,C  14)     90.01  0.000003    0.01     90.01   
   865. D(C  17,C  16,C   1,C   2)    180.00  0.000001    0.00    180.00   
   866. D(C  17,C  16,C   1,C   0)    -57.66  0.000065   -0.01    -57.68   
   867. D(C  15,C  16,C   1,C  14)    -27.79  0.000013    0.00    -27.79   
   868. D(H  22,C  16,C   2,C   3)      0.01 -0.000037   -0.01      0.01   
   869. D(C  15,C  16,C   1,C  13)    -57.72  0.000013   -0.00    -57.72   
   870. D(C  15,C  16,C   1,C  17)   -122.33 -0.000067    0.01   -122.32   
   871. D(C  15,C  16,C   1,C  12)    -90.03 -0.000044    0.01    -90.03   
   872. D(C  15,C  16,C   1,H   7)    -57.72  0.000020   -0.01    -57.73   
   873. D(C  15,C  16,C   1,C   2)     57.66 -0.000066    0.01     57.68   
   874. D(C  15,C  16,C   1,C   0)   -180.00 -0.000002   -0.00   -180.00   
   875. D(C   3,C  16,C   0,C  17)   -180.00 -0.000000   -0.00   -180.00   
   876. D(C   3,C  16,C   2,H   8)   -118.77  0.000021   -0.01   -118.78   
   877. D(C   3,C  16,C   0,H   6)   -179.99 -0.000007    0.01   -179.99   
   878. D(C   3,C  16,C   0,C   5)     60.86  0.000049    0.01     60.87   
   879. D(C   3,C  16,C   0,C   1)    -65.82 -0.000022    0.01    -65.82   
   880. D(C  15,C  16,C   3,C  17)   -120.58 -0.000007   -0.00   -120.58   
   881. D(H  22,C  16,C   0,C  13)    180.00  0.000007    0.02    180.01   
   882. D(H  22,C  16,C   0,C  12)    151.74 -0.000006    0.01    151.75   
   883. D(H  22,C  16,C   0,C  17)    119.15 -0.000048    0.02    119.17   
   884. D(C  17,C  16,C   3,H   9)    179.99  0.000007   -0.01    179.99   
   885. D(H  22,C  16,C   0,H   6)    119.15 -0.000055    0.02    119.18   
   886. D(H  22,C  16,C   0,C   5)      0.01  0.000001    0.03      0.04   
   887. D(H  22,C  16,C   0,C   1)   -126.68 -0.000070    0.03   -126.65   
   888. D(C  17,C  16,C   0,C  13)     60.85  0.000055   -0.00     60.85   
   889. D(C  17,C  16,C   0,C  12)     32.59  0.000042   -0.01     32.58   
   890. D(C  17,C  16,C   0,H   6)      0.01 -0.000007    0.01      0.01   
   891. D(C  17,C  16,C   0,C   5)   -119.14  0.000050    0.01   -119.13   
   892. D(H  22,C  16,C   3,C  14)   -150.01 -0.000026   -0.00   -150.01   
   893. D(C  17,C  16,C   0,C   1)    114.18 -0.000021    0.01    114.18   
   894. D(C  15,C  16,C   0,C  13)    -53.32  0.000074   -0.01    -53.34   
   895. D(C  15,C  16,C   0,C  12)    -81.58  0.000061   -0.02    -81.60   
   896. D(C   2,C  16,C   3,C  17)    -61.20  0.000010    0.00    -61.20   
   897. D(C  15,C  16,C   0,C  17)   -114.17  0.000020   -0.01   -114.18   
   898. D(C  15,C  16,C   0,H   6)   -114.17  0.000013   -0.00   -114.17   
   899. D(C  15,C  16,C   0,C   5)    126.69  0.000069    0.00    126.69   
   900. D(C  15,C  16,C   4,H  10)    115.43 -0.000016   -0.01    115.43   
   901. D(C  15,C  16,C   0,C   1)      0.00 -0.000002   -0.00      0.00   
   902. D(C   2,C  16,C  15,C   3)    -18.92 -0.000125    0.03    -18.89   
   903. D(C   2,C  16,C  15,H  21)    -96.45 -0.000092    0.03    -96.42   
   904. D(C   2,C  16,C  15,C  14)     83.57 -0.000093   -0.00     83.57   
   905. D(C   3,C  16,C  15,C   4)     -0.00 -0.000008   -0.01     -0.01   
   906. D(C   3,C  16,C  15,C   1)     36.56  0.000198   -0.05     36.52   
   907. D(C   3,C  16,C  15,C   2)     18.92  0.000125   -0.03     18.89   
   908. D(C   3,C  16,C  15,H  21)    -77.53  0.000033    0.00    -77.53   
   909. D(H  22,C  16,C  15,C   4)     77.52 -0.000064   -0.03     77.49   
   910. D(H  22,C  16,C  15,C   1)    114.09  0.000142   -0.07    114.02   
   911. D(H  22,C  16,C  15,C   3)     77.53 -0.000057   -0.02     77.50   
   912. D(H  22,C  16,C  15,H  21)     -0.00 -0.000023   -0.02     -0.02   
   913. D(H  22,C  16,C  15,C  14)   -179.98 -0.000025   -0.05   -180.03   
   914. D(C  17,C  16,C  15,C   4)   -102.50 -0.000048    0.00   -102.50   
   915. D(C  17,C  16,C  15,C   3)   -102.50 -0.000040    0.01   -102.49   
   916. D(C  17,C  16,C  15,C   2)    -83.58  0.000085   -0.02    -83.60   
   917. D(C  17,C  16,C  15,H  21)    179.97 -0.000007    0.01    179.99   
   918. D(C  17,C  16,C  15,C  14)     -0.01 -0.000008   -0.02     -0.02   
   919. D(C   3,C  16,C   5,C  12)   -121.26  0.000030    0.01   -121.26   
   920. D(C   3,C  16,C   5,C  17)   -148.61  0.000046    0.00   -148.61   
   921. D(C   3,C  16,C   5,H  11)    145.53 -0.000021    0.02    145.55   
   922. D(C   3,C  16,C   5,C   0)    -95.21  0.000010    0.03    -95.18   
   923. D(H  22,C  16,C   5,C  12)    153.95  0.000022    0.01    153.96   
   924. D(H  22,C  16,C   5,C  17)    126.61  0.000038    0.00    126.61   
   925. D(H  22,C  16,C   5,H  11)     60.75 -0.000029    0.02     60.77   
   926. D(H  22,C  16,C   5,C   4)    -53.39  0.000035    0.00    -53.39   
   927. D(H  22,C  16,C   5,C   0)   -179.99  0.000001    0.03   -179.96   
   928. D(C  17,C  16,C   5,C  12)     27.35 -0.000016    0.00     27.35   
   929. D(C  17,C  16,C   5,H  11)    -65.86 -0.000067    0.02    -65.85   
   930. D(C  17,C  16,C   5,C   4)   -180.00 -0.000002    0.00   -180.00   
   931. D(C  17,C  16,C   5,C   0)     53.40 -0.000036    0.03     53.43   
   932. D(C   3,C  16,C   5,C   4)     31.39  0.000044    0.00     31.39   
   933. D(C  15,C  16,C   5,C  12)    -86.78  0.000025   -0.01    -86.79   
   934. D(C  15,C  16,C   5,C  17)   -114.13  0.000041   -0.01   -114.14   
   935. D(C  15,C  16,C   5,H  11)   -179.99 -0.000026    0.00   -179.99   
   936. D(C  15,C  16,C   5,C   4)     65.87  0.000038   -0.01     65.86   
   937. D(C  15,C  16,C   5,C   0)    -60.73  0.000005    0.01    -60.72   
   938. D(C   2,C  16,C   4,C   5)    -89.99  0.000002    0.01    -89.99   
   939. D(C   2,C  16,C   4,C   3)     32.26  0.000012   -0.01     32.25   
   940. D(C  17,C  16,C  15,C   1)    -65.93  0.000158   -0.04    -65.97   
   941. D(C   3,C  16,C   4,C  15)      0.01  0.000022    0.02      0.03   
   942. D(C   3,C  16,C   4,C  17)   -122.26 -0.000008    0.02   -122.24   
   943. D(C   3,C  16,C   4,H  10)    115.45  0.000006    0.01    115.46   
   944. D(H  22,C  16,C  15,C   2)     96.44  0.000069   -0.05     96.40   
   945. D(C   3,C  16,C   4,C   5)   -122.26 -0.000010    0.02   -122.24   
   946. D(H  22,C  16,C   4,C  15)   -115.46  0.000032   -0.00   -115.46   
   947. D(H  22,C  16,C   4,C  17)    122.27  0.000001   -0.00    122.27   
   948. D(C   3,C  16,C  15,C  14)    102.49  0.000032   -0.03    102.46   
   949. D(H  22,C  16,C   4,H  10)     -0.02  0.000015   -0.01     -0.03   
   950. D(H  22,C  16,C   4,C   5)    122.27 -0.000001   -0.00    122.27   
   951. D(H  22,C  16,C   4,C   3)   -115.47  0.000010   -0.02   -115.49   
   952. D(C  17,C  16,C   4,C  15)    122.27  0.000030   -0.00    122.27   
   953. D(C  17,C  16,C   4,H  10)   -122.30  0.000014   -0.01   -122.30   
   954. D(C  17,C  16,C   4,C   5)      0.00 -0.000002    0.00      0.00   
   955. D(C  17,C  16,C   4,C   3)    122.26  0.000008   -0.02    122.24   
   956. D(C   2,C  16,C  15,C   1)     17.65  0.000073   -0.02     17.62   
   957. D(C  15,C  16,C   4,C  17)   -122.27 -0.000030    0.00   -122.27   
   958. D(C   1,C  17,C  16,C  15)     77.31 -0.000152    0.03     77.35   
   959. D(C   0,C  17,C  16,C   5)    -17.68 -0.000119    0.02    -17.66   
   960. D(C   0,C  17,C  16,C   1)     18.91  0.000112   -0.02     18.89   
   961. D(C   0,C  17,C  16,C   4)    -17.68 -0.000118    0.02    -17.67   
   962. D(C   0,C  17,C  16,C   2)     18.91  0.000111   -0.02     18.89   
   963. D(C   0,C  17,C  16,H  22)    -83.80 -0.000023    0.04    -83.75   
   964. D(C   0,C  17,C  16,C  15)     96.23 -0.000040    0.01     96.24   
   965. D(H  23,C  17,C  16,C   0)     83.79  0.000022   -0.03     83.76   
   966. D(H  23,C  17,C  16,C   1)    102.71  0.000133   -0.06    102.65   
   967. D(H  23,C  17,C  16,C   4)     66.11 -0.000096   -0.01     66.10   
   968. D(H  23,C  17,C  16,C   2)    102.71  0.000133   -0.06    102.65   
   969. D(H  23,C  17,C  16,H  22)     -0.00 -0.000002    0.01      0.01   
   970. D(H  23,C  17,C  16,C  15)   -179.98 -0.000018   -0.02   -180.00   
   971. D(C  12,C  17,C  16,C   0)    -96.23  0.000039   -0.01    -96.24   
   972. D(C  12,C  17,C  16,C   5)   -113.91 -0.000080    0.01   -113.90   
   973. D(C  12,C  17,C  16,C   1)    -77.31  0.000151   -0.03    -77.35   
   974. D(C  12,C  17,C  16,C   4)   -113.91 -0.000079    0.01   -113.90   
   975. D(C  12,C  17,C  16,C   2)    -77.31  0.000150   -0.03    -77.35   
   976. D(C  12,C  17,C  16,H  22)    179.98  0.000016    0.03    180.01   
   977. D(C  12,C  17,C  16,C  15)      0.00 -0.000001   -0.00      0.00   
   978. D(C   1,C  17,C  12,C   2)    -17.65 -0.000073    0.02    -17.62   
   979. D(C   1,C  17,C  12,H  18)     96.44  0.000097   -0.03     96.41   
   980. D(C   1,C  17,C  12,C  13)    -83.57  0.000093   -0.00    -83.58   
   981. D(C   0,C  17,C  12,C   5)      0.00  0.000008    0.01      0.01   
   982. D(C   0,C  17,C  12,C   1)    -18.92 -0.000124    0.03    -18.89   
   983. D(C   0,C  17,C  12,H  18)     77.52 -0.000027   -0.01     77.52   
   984. D(C   0,C  17,C  12,C  13)   -102.49 -0.000031    0.02   -102.47   
   985. D(H  23,C  17,C  12,C   5)    -77.52  0.000067    0.02    -77.50   
   986. D(H  23,C  17,C  12,C   2)   -114.09 -0.000138    0.06   -114.03   
   987. D(H  23,C  17,C  12,C   0)    -77.53  0.000059    0.02    -77.51   
   988. D(H  23,C  17,C  12,C   1)    -96.44 -0.000065    0.04    -96.40   
   989. D(H  23,C  17,C  12,C  13)    179.98  0.000028    0.04    180.02   
   990. D(C  16,C  17,C  12,C   5)    102.50  0.000049    0.00    102.50   
   991. D(C  16,C  17,C  12,C   2)     65.93 -0.000155    0.04     65.97   
   992. D(C  16,C  17,C  12,C   1)     83.58 -0.000082    0.02     83.60   
   993. D(C  16,C  17,C  12,H  18)   -179.98  0.000015   -0.01   -179.99   
   994. D(C  16,C  17,C  12,C  13)      0.00  0.000010    0.02      0.02   
   995. D(C   1,C  17,C   5,C   0)    -32.26 -0.000009    0.01    -32.25   
   996. D(C   0,C  17,C   5,C  12)     -0.01 -0.000022   -0.02     -0.03   
   997. D(C   0,C  17,C   5,C  16)    122.26  0.000008   -0.02    122.24   
   998. D(C   0,C  17,C   5,H  11)   -115.44 -0.000007   -0.01   -115.46   
   999. D(C   0,C  17,C   5,C   4)    122.26  0.000006   -0.02    122.24   
  1000. D(H  23,C  17,C   5,C  12)    115.46 -0.000032    0.00    115.46   
  1001. D(H  23,C  17,C   5,C  16)   -122.27 -0.000002    0.00   -122.27   
  1002. D(H  23,C  17,C   5,C   4)   -122.27 -0.000004    0.00   -122.27   
  1003. D(H  23,C  17,C   5,C   0)    115.47 -0.000010    0.02    115.49   
  1004. D(C  16,C  17,C   5,C  12)   -122.27 -0.000031   -0.00   -122.27   
  1005. D(C  16,C  17,C   5,C   4)      0.00 -0.000002    0.00      0.00   
  1006. D(C  16,C  17,C   5,C   0)   -122.26 -0.000008    0.02   -122.24   
  1007. D(C  12,C  17,C   5,C  16)    122.27  0.000031    0.00    122.27   
  1008. D(C  12,C  17,C   5,C   4)    122.27  0.000028    0.00    122.27   
  1009. D(C  12,C  17,C   5,C   0)      0.01  0.000022    0.02      0.03   
  1010. D(C   0,C  17,C   4,C  15)    121.26 -0.000030   -0.01    121.26   
  1011. D(C   0,C  17,C   4,C  16)    148.61 -0.000045   -0.00    148.61   
  1012. D(C   0,C  17,C   4,H  10)   -145.53  0.000021   -0.02   -145.55   
  1013. D(C   0,C  17,C   4,C   5)    -31.39 -0.000047   -0.00    -31.39   
  1014. D(C   0,C  17,C   4,C   3)     95.20 -0.000007   -0.03     95.18   
  1015. D(H  23,C  17,C   4,C  16)   -126.61 -0.000038    0.00   -126.61   
  1016. D(H  23,C  17,C   4,H  10)    -60.75  0.000028   -0.02    -60.76   
  1017. D(H  23,C  17,C   4,C   5)     53.39 -0.000040    0.00     53.40   
  1018. D(C  16,C  17,C   4,C  15)    -27.35  0.000015   -0.00    -27.35   
  1019. D(C  16,C  17,C   4,H  10)     65.86  0.000066   -0.02     65.85   
  1020. D(C  16,C  17,C   4,C   5)   -180.00 -0.000002    0.00   -180.00   
  1021. D(C  12,C  17,C   4,C  15)     86.79 -0.000026    0.01     86.79   
  1022. D(C  12,C  17,C   4,C  16)    114.13 -0.000041    0.01    114.15   
  1023. D(C  12,C  17,C   4,H  10)    179.99  0.000025   -0.00    179.99   
  1024. D(C  12,C  17,C   4,C   5)    -65.87 -0.000043    0.01    -65.85   
  1025. D(C  12,C  17,C   4,C   3)     60.73 -0.000003   -0.01     60.71   
  1026. D(C   0,C  17,C   3,C  16)   -180.00 -0.000000   -0.00   -180.00   
  1027. D(C   0,C  17,C   3,H   9)    179.99  0.000007   -0.01    179.99   
  1028. D(C   0,C  17,C   3,C   2)     65.83  0.000017   -0.01     65.82   
  1029. D(H  23,C  17,C   3,C  14)   -180.00 -0.000007   -0.01   -180.01   
  1030. D(H  23,C  17,C   3,C  15)   -151.74  0.000005   -0.01   -151.75   
  1031. D(H  23,C  17,C   3,H   9)   -119.15  0.000055   -0.02   -119.18   
  1032. D(H  23,C  17,C   3,C   4)     -0.01  0.000000   -0.03     -0.04   
  1033. D(H  23,C  17,C   3,C   2)    126.68  0.000064   -0.03    126.66   
  1034. D(C  16,C  17,C   3,C  14)    -60.85 -0.000055    0.00    -60.85   
  1035. D(C  16,C  17,C   3,C  15)    -32.59 -0.000043    0.01    -32.58   
  1036. D(C  16,C  17,C   3,H   9)     -0.01  0.000008   -0.01     -0.01   
  1037. D(C  16,C  17,C   3,C   4)    119.14 -0.000047   -0.01    119.12   
  1038. D(C  16,C  17,C   3,C   2)   -114.17  0.000017   -0.01   -114.18   
  1039. D(C  12,C  17,C   3,C  14)     53.33 -0.000075    0.01     53.34   
  1040. D(H  23,C  17,C   3,C  16)   -119.15  0.000047   -0.02   -119.16   
  1041. D(C  12,C  17,C   3,C  15)     81.59 -0.000062    0.02     81.60   
  1042. D(C  12,C  17,C   3,C  16)    114.18 -0.000020    0.01    114.19   
  1043. D(C  12,C  17,C   3,H   9)    114.17 -0.000012    0.00    114.17   
  1044. D(C   0,C  17,C   3,C   4)    -60.86 -0.000048   -0.01    -60.88   
  1045. D(C  12,C  17,C   3,C   4)   -126.69 -0.000067   -0.00   -126.69   
  1046. D(C  12,C  17,C   3,C   2)      0.00 -0.000003   -0.00      0.00   
  1047. D(C   0,C  17,C   2,C   3)    -90.03 -0.000040    0.01    -90.02   
  1048. D(C   0,C  17,C   2,C   1)     32.30  0.000030   -0.00     32.30   
  1049. D(H  23,C  17,C   2,C  12)    122.28  0.000011   -0.00    122.27   
  1050. D(H  23,C  17,C   2,C  13)    150.07 -0.000002   -0.01    150.07   
  1051. D(H  23,C  17,C   2,C  14)    180.00 -0.000002   -0.00    179.99   
  1052. D(C  16,C  17,C   4,C   3)    -53.40  0.000038   -0.03    -53.43   
  1053. D(H  23,C  17,C   2,C  16)   -115.39  0.000078   -0.02   -115.40   
  1054. D(H  23,C  17,C   2,C  15)   -147.69  0.000054   -0.01   -147.70   
  1055. D(H  23,C  17,C   2,H   8)   -180.00 -0.000008    0.00   -180.00   
  1056. D(H  23,C  17,C   4,C   3)    179.99  0.000000   -0.03    179.96   
  1057. D(H  23,C  17,C   2,C   3)    -57.72  0.000008   -0.00    -57.72   
  1058. D(H  23,C  17,C   2,C   1)     64.61  0.000079   -0.02     64.60   
  1059. D(C  16,C  17,C   2,C  12)   -122.34 -0.000066    0.01   -122.33   
  1060. D(H  23,C  17,C   4,C  15)   -153.95 -0.000023   -0.00   -153.96   
  1061. D(C  16,C  17,C   2,C  13)    -94.54 -0.000079    0.01    -94.53   
  1062. D(C  16,C  17,C   2,C  14)    -64.62 -0.000079    0.01    -64.61   
  1063. D(C  16,C  17,C   2,C  15)    -32.30 -0.000023    0.00    -32.30   
  1064. D(C  16,C  17,C   2,H   8)    -64.61 -0.000086    0.02    -64.59   
  1065. D(C  16,C  17,C   2,C   3)     57.67 -0.000069    0.01     57.68   
  1066. D(C  16,C  17,C   2,C   1)    180.00  0.000001    0.00    180.00   
  1067. D(C  12,C  17,C   2,C  13)     27.80 -0.000013   -0.00     27.79   
  1068. D(C  12,C  17,C   5,H  11)   -115.43  0.000015    0.01   -115.43   
  1069. D(C  12,C  17,C   2,C  14)     57.72 -0.000013    0.00     57.72   
  1070. D(C  12,C  17,C   2,C  16)    122.34  0.000066   -0.01    122.33   
  1071. D(C  12,C  17,C   2,C  15)     90.04  0.000043   -0.01     90.03   
  1072. D(C  16,C  17,C   5,H  11)    122.30 -0.000015    0.01    122.30   
  1073. D(C  12,C  17,C   2,H   8)     57.72 -0.000019    0.01     57.73   
  1074. D(C  12,C  17,C   2,C   3)   -180.00 -0.000003   -0.00   -180.00   
  1075. D(C  12,C  17,C   2,C   1)    -57.66  0.000067   -0.01    -57.68   
  1076. D(H  23,C  17,C   5,H  11)      0.03 -0.000017    0.01      0.03   
  1077. D(C   0,C  17,C   1,H   7)    118.77 -0.000018    0.01    118.78   
  1078. D(C   0,C  17,C   1,C   2)   -120.61 -0.000028    0.00   -120.61   
  1079. D(H  23,C  17,C   1,C  15)   -150.02  0.000019    0.00   -150.02   
  1080. D(H  23,C  17,C   1,C  14)    179.99  0.000005    0.01    180.00   
  1081. D(H  23,C  17,C   1,C  16)   -120.62  0.000005    0.01   -120.61   
  1082. D(H  23,C  17,C   1,C  13)    149.37  0.000002    0.00    149.38   
  1083. D(H  23,C  17,C   1,C  12)    118.77 -0.000025    0.01    118.78   
  1084. D(C   1,C  17,C   5,C   4)     90.00 -0.000003   -0.01     89.99   
  1085. D(H  23,C  17,C   1,H   7)    118.75  0.000016    0.02    118.78   
  1086. D(H  23,C  17,C   1,C   2)   -120.62  0.000006    0.01   -120.61   
  1087. D(H  23,C  17,C   1,C   0)     -0.01  0.000034    0.01     -0.00   
  1088. D(C  16,C  17,C  12,C   0)    102.50  0.000042   -0.01    102.49   
  1089. D(C  16,C  17,C   1,C  15)    -29.40  0.000014   -0.01    -29.41   
  1090. D(C  16,C  17,C   1,C  14)    -59.39 -0.000000   -0.01    -59.39   
  1091. D(C  16,C  17,C   1,C  13)    -90.01 -0.000002   -0.01    -90.01   
  1092. D(H  23,C  17,C  12,H  18)     -0.00  0.000032    0.01      0.01   
  1093. D(C  16,C  17,C   1,C  12)   -120.61 -0.000030    0.00   -120.61   
  1094. D(C  16,C  17,C   1,H   7)   -120.62  0.000011    0.01   -120.61   
  1095. D(C  16,C  17,C   1,C   2)     -0.00  0.000001    0.00     -0.00   
  1096. D(C  16,C  17,C   1,C   0)    120.61  0.000029   -0.00    120.61   
  1097. D(C  12,C  17,C   1,C  15)     91.21  0.000043   -0.01     91.20   
  1098. D(C  12,C  17,C   1,C  14)     61.23  0.000029   -0.01     61.22   
  1099. D(C  12,C  17,C   1,C  16)    120.61  0.000030   -0.00    120.61   
  1100. D(C   0,C  17,C  12,C   2)    -36.56 -0.000197    0.05    -36.52   
  1101. D(C  12,C  17,C   1,C  13)     30.61  0.000027   -0.01     30.60   
  1102. D(C  12,C  17,C   1,H   7)     -0.01  0.000041    0.01     -0.00   
  1103. D(C  12,C  17,C   1,C   2)    120.61  0.000031   -0.00    120.61   
  1104. D(C   1,C  17,C  12,C   0)     18.92  0.000124   -0.03     18.89   
  1105. D(C  12,C  17,C   1,C   0)   -118.78  0.000059   -0.01   -118.78   
  1106. D(C   1,C  17,C   0,C  13)    -29.98 -0.000008   -0.01    -29.99   
  1107. D(C   1,C  17,C   0,C  16)     61.20 -0.000007   -0.00     61.20   
  1108. D(C  12,C  17,C  16,C   3)    -96.23  0.000039   -0.01    -96.24   
  1109. D(C   1,C  17,C   0,C  12)    -59.37 -0.000013   -0.00    -59.38   
  1110. D(C   1,C  17,C   0,H   6)   -118.79 -0.000013    0.00   -118.79   
  1111. D(C   1,C  17,C   0,C   5)    120.64  0.000008    0.01    120.65   
  1112. D(H  23,C  17,C   0,C  13)    150.01  0.000026    0.00    150.01   
  1113. D(H  23,C  17,C   0,C  16)   -118.81  0.000027    0.01   -118.80   
  1114. D(H  23,C  17,C   0,C  12)    120.62  0.000021    0.00    120.62   
  1115. D(H  23,C  17,C   0,H   6)     61.20  0.000021    0.01     61.21   
  1116. D(H  23,C  17,C  16,C   3)     83.79  0.000022   -0.03     83.76   
  1117. D(H  23,C  17,C   0,C   5)    -59.37  0.000042    0.02    -59.35   
  1118. D(H  23,C  17,C   0,C   1)    179.99  0.000034    0.01    180.00   
  1119. D(C  16,C  17,C   0,C  13)    -91.18 -0.000001   -0.01    -91.19   
  1120. D(H  23,C  17,C  16,C   5)     66.11 -0.000097   -0.01     66.10   
  1121. D(C  16,C  17,C   0,C  12)   -120.58 -0.000007   -0.00   -120.58   
  1122. D(C  16,C  17,C   0,H   6)   -180.00 -0.000006    0.00   -179.99   
  1123. D(C  16,C  17,C   0,C   5)     59.43  0.000014    0.02     59.45   
  1124. D(C   0,C  17,C  16,C   3)      0.00 -0.000000   -0.00      0.00   
  1125. D(C  16,C  17,C   0,C   1)    -61.20  0.000007    0.00    -61.20   
  1126. D(C  12,C  17,C   0,C  13)     29.39  0.000005   -0.00     29.39   
  1127. D(C  12,C  17,C   0,C  16)    120.58  0.000007    0.00    120.58   
  1128. D(C  12,C  17,C   0,H   6)    -59.42  0.000000    0.01    -59.41   
  1129. D(C  12,C  17,C   0,C   5)   -179.99  0.000021    0.02   -179.97   
  1130. D(C  12,C  17,C   0,C   1)     59.37  0.000013    0.00     59.38   
    ----------------------------------------------------------------------------

Geometry step timings:
Preparation and reading OPT file:      0.000 s ( 0.013 %)
Internal coordinates            :      0.000 s ( 0.038 %)
B/P matrices and projection     :      0.235 s (44.584 %)
Hessian update/contruction      :      0.034 s ( 6.534 %)
Making the step                 :      0.245 s (46.494 %)
Converting the step to Cartesian:      0.005 s ( 0.935 %)
Storing new data                :      0.000 s ( 0.011 %)
Checking convergence            :      0.001 s ( 0.199 %)
Final printing                  :      0.006 s ( 1.193 %)
Total time                      :      0.526 s

Time for energy+gradient        :     15.068 s
Time for complete geometry iter :     15.729 s

         *************************************************************
         *                GEOMETRY OPTIMIZATION CYCLE   3            *
         *************************************************************
---------------------------------
CARTESIAN COORDINATES (ANGSTROEM)
---------------------------------
  C     -0.799180    1.387312   -1.799957
  C      0.402799    0.693508   -1.800965
  C      0.402801   -0.693544   -1.800937
  C     -0.799195   -1.387317   -1.799985
  C     -2.001337   -0.694084   -1.798408
  C     -2.001321    0.694072   -1.798518
  H     -0.799013    2.469421   -1.800085
  H      1.339436    1.234288   -1.801556
  H      1.339437   -1.234322   -1.801603
  H     -0.799010   -2.469429   -1.800375
  H     -2.938488   -1.235442   -1.799169
  H     -2.938469    1.235440   -1.799272
  C      0.799187    1.387380    1.799944
  C      2.001302    0.694082    1.798549
  C      2.001301   -0.694069    1.798526
  C      0.799183   -1.387342    1.799975
  C     -0.402776   -0.693527    1.800918
  C     -0.402770    0.693534    1.800910
  H      0.799030    2.469488    1.800054
  H      2.938465    1.235424    1.799314
  H      2.938460   -1.235415    1.799254
  H      0.799016   -2.469451    1.800220
  H     -1.339428   -1.234277    1.801527
  H     -1.339429    1.234272    1.801636

----------------------------
CARTESIAN COORDINATES (A.U.)
----------------------------
  NO LB      ZA    FRAG     MASS         X           Y           Z
   0 C     6.0000    0    12.011   -1.510231    2.621639   -3.401426
   1 C     6.0000    0    12.011    0.761181    1.310540   -3.403330
   2 C     6.0000    0    12.011    0.761184   -1.310609   -3.403278
   3 C     6.0000    0    12.011   -1.510261   -2.621650   -3.401479
   4 C     6.0000    0    12.011   -3.781980   -1.311629   -3.398498
   5 C     6.0000    0    12.011   -3.781948    1.311606   -3.398706
   6 H     1.0000    0     1.008   -1.509916    4.666529   -3.401667
   7 H     1.0000    0     1.008    2.531168    2.332466   -3.404447
   8 H     1.0000    0     1.008    2.531169   -2.332531   -3.404535
   9 H     1.0000    0     1.008   -1.509910   -4.666544   -3.402215
  10 H     1.0000    0     1.008   -5.552938   -2.334648   -3.399937
  11 H     1.0000    0     1.008   -5.552901    2.334643   -3.400131
  12 C     6.0000    0    12.011    1.510245    2.621769    3.401401
  13 C     6.0000    0    12.011    3.781912    1.311625    3.398765
  14 C     6.0000    0    12.011    3.781911   -1.311600    3.398722
  15 C     6.0000    0    12.011    1.510237   -2.621697    3.401460
  16 C     6.0000    0    12.011   -0.761136   -1.310576    3.403243
  17 C     6.0000    0    12.011   -0.761125    1.310589    3.403228
  18 H     1.0000    0     1.008    1.509948    4.666657    3.401608
  19 H     1.0000    0     1.008    5.552894    2.334613    3.400210
  20 H     1.0000    0     1.008    5.552885   -2.334596    3.400097
  21 H     1.0000    0     1.008    1.509921   -4.666586    3.401924
  22 H     1.0000    0     1.008   -2.531153   -2.332446    3.404392
  23 H     1.0000    0     1.008   -2.531154    2.332436    3.404598

--------------------------------
INTERNAL COORDINATES (ANGSTROEM)
--------------------------------
 C      0   0   0     0.000000000000     0.00000000     0.00000000
 C      1   0   0     1.387846704121     0.00000000     0.00000000
 C      2   1   0     1.387052456598   119.99436995     0.00000000
 C      3   2   1     1.387846774564   119.99275464     0.00000000
 C      4   3   2     1.387703072305   120.03663569   359.96884282
 C      1   2   3     1.387705257662   120.03493693     0.00000000
 H      1   2   3     1.082109267852   119.98546845   180.00647304
 H      2   1   3     1.081541130189   120.00516312   180.01319226
 H      3   2   1     1.081539383829   120.00059590   180.00731152
 H      4   3   2     1.082111256058   119.98299021   179.97488751
 H      5   4   3     1.082275978668   120.01590669   179.90809140
 H      6   1   2     1.082278238445   120.01515446   180.09409950
 C      8   2   1     3.645010987252    83.80588164    83.58951254
 C     13   8   2     1.387711228549    81.35165040   119.51248058
 C     14  13   8     1.388151003205   119.97339921   267.78447239
 C     15  14  13     1.387702481945   119.97247015     0.00000000
 C     16  15  14     1.387834556429   120.03240074     0.02521679
 C     17  16  15     1.387060364433   119.99491239   359.97624632
 H     13   8   2     1.082108176286    92.41414549   239.47994746
 H     14  13   8     1.082278416825   120.01410558    87.89662336
 H     15  14  13     1.082276975646   120.01268917   180.11095724
 H     16  15  14     1.082109011937   119.98132743   180.01606119
 H     17  16  15     1.081540617247   120.00607207   179.96812461
 H     18  17  16     1.081539983185   119.99782161   179.99941113

---------------------------
INTERNAL COORDINATES (A.U.)
---------------------------
 C      0   0   0     0.000000000000     0.00000000     0.00000000
 C      1   0   0     2.622650186654     0.00000000     0.00000000
 C      2   1   0     2.621149276353   119.99436995     0.00000000
 C      3   2   1     2.622650319773   119.99275464     0.00000000
 C      4   3   2     2.622378761858   120.03663569   359.96884282
 C      1   2   3     2.622382891584   120.03493693     0.00000000
 H      1   2   3     2.044890163219   119.98546845   180.00647304
 H      2   1   3     2.043816538628   120.00516312   180.01319226
 H      3   2   1     2.043813238488   120.00059590   180.00731152
 H      4   3   2     2.044893920384   119.98299021   179.97488751
 H      5   4   3     2.045205201003   120.01590669   179.90809140
 H      6   1   2     2.045209471364   120.01515446   180.09409950
 C      8   2   1     6.888072521040    83.80588164    83.58951254
 C     13   8   2     2.622394174925    81.35165040   119.51248058
 C     14  13   8     2.623225228586   119.97339921   267.78447239
 C     15  14  13     2.622377646238   119.97247015     0.00000000
 C     16  15  14     2.622627230842   120.03240074     0.02521679
 C     17  16  15     2.621164219996   119.99491239   359.97624632
 H     13   8   2     2.044888100457    92.41414549   239.47994746
 H     14  13   8     2.045209808453   120.01410558    87.89662336
 H     15  14  13     2.045207085019   120.01268917   180.11095724
 H     16  15  14     2.044889679609   119.98132743   180.01606119
 H     17  16  15     2.043815569310   120.00607207   179.96812461
 H     18  17  16     2.043814371106   119.99782161   179.99941113



           ************************************************************
           *        Program running with 4 parallel MPI-processes     *
           *              working on a common directory               *
           ************************************************************
------------------------------------------------------------------------------
                   ___                                                        
                  /   \      - P O W E R E D   B Y -                         
                 /     \                                                     
                 |  |  |   _    _      __       _____    __    __             
                 |  |  |  | |  | |    /  \     |  _  \  |  |  /  |          
                  \  \/   | |  | |   /    \    | | | |  |  | /  /          
                 / \  \   | |__| |  /  /\  \   | |_| |  |  |/  /          
                |  |  |   |  __  | /  /__\  \  |    /   |      \           
                |  |  |   | |  | | |   __   |  |    \   |  |\   \          
                \     /   | |  | | |  |  |  |  | |\  \  |  | \   \       
                 \___/    |_|  |_| |__|  |__|  |_| \__\ |__|  \__/        
                                                                              
                      - O R C A' S   B I G   F R I E N D -                    
                                      &                                       
                       - I N T E G R A L  F E E D E R -                       
                                                                              
 v1 FN, 2020, v2 2021, v3 2022-2024                                           
------------------------------------------------------------------------------


----------------------
SHARK INTEGRAL PACKAGE
----------------------

Number of atoms                             ...     24
Number of basis functions                   ...    264
Number of shells                            ...    144
Maximum angular momentum                    ...      2
Integral batch strategy                     ... SHARK/LIBINT Hybrid
RI-J (if used) integral strategy            ... SPLIT-RIJ (Revised 2003 algorithm where possible)
Printlevel                                  ...      1
Contraction scheme used                     ... SEGMENTED contraction
Prescreening option                         ... SCHWARTZ
   Thresh                                   ... 2.500e-11
   Tcut                                     ... 2.500e-12
   Tpresel                                  ... 2.500e-12 
Coulomb Range Separation                    ... NOT USED
Exchange Range Separation                   ... NOT USED
Multipole approximations                    ... NOT USED
Finite Nucleus Model                        ... NOT USED
CABS basis                                  ... NOT available
Auxiliary Coulomb fitting basis             ... AVAILABLE
   # of basis functions in Aux-J            ...    432
   # of shells in Aux-J                     ...    192
   Maximum angular momentum in Aux-J        ...      2
Auxiliary J/K fitting basis                 ... NOT available
Auxiliary Correlation fitting basis         ... NOT available
Auxiliary 'external' fitting basis          ... NOT available

Checking pre-screening integrals            ... done (  0.0 sec) Dimension = 144
   => SHARK Basis and OBASIS are compatible. Storing Pre-screening
Shell pair information
Shell pair cut-off parameter TPreSel        ...   2.5e-12
Total number of shell pairs                 ...     10440
Shell pairs after pre-screening             ...      9148
Total number of primitive shell pairs       ...     38526
Primitive shell pairs kept                  ...     22702
          la=0 lb=0:   3874 shell pairs
          la=1 lb=0:   3204 shell pairs
          la=1 lb=1:    652 shell pairs
          la=2 lb=0:    936 shell pairs
          la=2 lb=1:    412 shell pairs
          la=2 lb=2:     70 shell pairs

Checking whether 4 symmetric matrices of dimension 264 fit in memory
:Max Core in MB      =   2500.00
 MB in use           =     13.22
 MB left             =   2486.78
 MB needed           =      1.07
 Data fit in memory  = YES
Calculating RI/J V-Matrix + Cholesky decomp.... done (  0.0 sec)
Calculating Nuclear repulsion               ... done (  0.0 sec) ENN=    621.544058086701 Eh

Diagonalization of the overlap matrix:
Smallest eigenvalue                        ... 9.645e-06
Time for diagonalization                   ...    0.010 sec
Threshold for overlap eigenvalues          ... 1.000e-07
Number of eigenvalues below threshold      ... 0
Time for construction of square roots      ...    0.004 sec
Total time needed                          ...    0.015 sec

-------------------
DFT GRID GENERATION
-------------------

General Integration Accuracy     IntAcc      ... 4.388
Radial Grid Type                 RadialGrid  ... OptM3 with GC (2021)
Angular Grid (max. ang.)         AngularGrid ... 4 (Lebedev-302)
Angular grid pruning method      GridPruning ... 4 (adaptive)
Weight generation scheme         WeightScheme... mBecke (2022)
Basis function cutoff            BFCut       ... 1.0000e-11
Integration weight cutoff        WCut        ... 1.0000e-14
Partially contracted basis set               ... off
Rotationally invariant grid construction     ... off
Angular grids for H and He will be reduced by one unit

Total number of grid points                  ...   110181
Total number of batches                      ...     1732
Average number of points per batch           ...       63
Average number of grid points per atom       ...     4591
Grids setup in   1.0 sec
Initializing property integral containers    ... done (  0.0 sec)

SHARK setup successfully completed in   1.2 seconds

Maximum memory used throughout the entire STARTUP-calculation: 34.8 MB


           ************************************************************
           *        Program running with 4 parallel MPI-processes     *
           *              working on a common directory               *
           ************************************************************
Occupation numbers will be reassigned to an Aufbau configuration
             **** ENERGY FILE WAS UPDATED (dimero_PD.en.tmp) ****
Finished Guess after   0.1 sec
Maximum memory used throughout the entire GUESS-calculation: 17.4 MB


           ************************************************************
           *        Program running with 4 parallel MPI-processes     *
           *              working on a common directory               *
           ************************************************************
----------------------------------------D-I-I-S--------------------------------------------
Iteration    Energy (Eh)           Delta-E    RMSDP     MaxDP     DIISErr   Damp  Time(sec)
-------------------------------------------------------------------------------------------
               ***  Starting incremental Fock matrix formation  ***
                              *** Initializing SOSCF ***
---------------------------------------S-O-S-C-F--------------------------------------
Iteration    Energy (Eh)           Delta-E    RMSDP     MaxDP     MaxGrad    Time(sec)
--------------------------------------------------------------------------------------
    1    -464.1257691882098015     0.00e+00  2.89e-04  2.94e-03  1.10e-04     0.9
               *** Restarting incremental Fock matrix formation ***
    2    -464.1257785098440536    -9.32e-06  1.89e-04  2.75e-03  1.69e-04     0.9
    3    -464.1257772401855846     1.27e-06  8.51e-05  1.40e-03  2.32e-04     0.7
    4    -464.1257799836974982    -2.74e-06  1.86e-05  1.94e-04  5.94e-05     0.7
    5    -464.1257797017295843     2.82e-07  1.62e-05  2.15e-04  1.17e-04     0.6
    6    -464.1257800576219097    -3.56e-07  4.56e-06  4.80e-05  3.13e-06     0.6
    7    -464.1257800559022826     1.72e-09  2.46e-06  3.63e-05  5.70e-06     0.5
                 **** Energy Check signals convergence ****

               *****************************************************
               *                     SUCCESS                       *
               *           SCF CONVERGED AFTER   7 CYCLES          *
               *****************************************************

             **** ENERGY FILE WAS UPDATED (dimero_PD.en.tmp) ****

----------------
TOTAL SCF ENERGY
----------------

Total Energy       :       -464.12578005340117 Eh          -12629.50455 eV

Components:
Nuclear Repulsion  :        621.54405808670128 Eh           16913.07366 eV
Electronic Energy  :      -1085.66983814010246 Eh          -29542.57821 eV
One Electron Energy:      -1858.28638355823387 Eh          -50566.54325 eV
Two Electron Energy:        772.61654541813152 Eh           21023.96504 eV

Virial components:
Potential Energy   :       -926.56065302690047 Eh          -25212.99717 eV
Kinetic Energy     :        462.43487297349930 Eh           12583.49263 eV
Virial Ratio       :          2.00365653020290

DFT components:
N(Alpha)           :       42.000056612938 electrons
N(Beta)            :       42.000056612938 electrons
N(Total)           :       84.000113225875 electrons
E(XC)              :      -69.204387977380 Eh       

---------------
SCF CONVERGENCE
---------------

  Last Energy change         ...   -1.7196e-09  Tolerance :   1.0000e-08
  Last MAX-Density change    ...    3.6294e-05  Tolerance :   1.0000e-07
  Last RMS-Density change    ...    2.4603e-06  Tolerance :   5.0000e-09
  Last DIIS Error            ...    7.9507e-04  Tolerance :   5.0000e-07
  Last Orbital Gradient      ...    5.7004e-06  Tolerance :   1.0000e-05
  Last Orbital Rotation      ...    7.7605e-06  Tolerance :   1.0000e-05


Total SCF time: 0 days 0 hours 0 min 5 sec 
Finished LeanSCF after   5.5 sec

Maximum memory used throughout the entire LEANSCF-calculation: 20.6 MB


           ************************************************************
           *        Program running with 4 parallel MPI-processes     *
           *              working on a common directory               *
           ************************************************************

------------------------------------------------------------------------------
                         ORCA PROPERTY INTEGRAL CALCULATIONS
------------------------------------------------------------------------------

GBWName                                   ... dimero_PD.gbw
Number of atoms                           ...     24
Number of basis functions                 ...    264
Max core memory                           ...   2500 MB

Dipole integrals                          ... YES
Quadrupole integrals                      ...  NO
Linear momentum integrals                 ...  NO
Angular momentum integrals                ...  NO
Higher moments length integrals           ...  NO
Higher moments velocity integrals         ...  NO
Kinetic energy integrals                  ...  NO
GIAO right hand sides                     ...  NO
GIAO dipole derivative integrals          ...  NO
SOC integrals                             ...  NO
EPR diamagnetic integrals (GIAO)          ...  NO
EPR gauge integrals                       ...  NO
Field gradient integrals                  ...  NO (   0 nuclei)
Spin-dipole/Fermi contact integrals       ...  NO (   0 nuclei)
Contact density integrals                 ...  NO (   0 nuclei)
Nucleus-orbit integrals                   ...  NO (   0 nuclei)
Geometric perturbations                   ...  NO (  24 nuclei)

Choice of electric origin   ... Center of mass
Position of electric origin ... ( -0.0000,  0.0000,  0.0000) 
Choice of magnetic origin   ... GIAO
Position of magnetic origin ... (  0.0000,  0.0000,  0.0000) 

Calculating integrals                     ... Electric Dipole (Length)     done (  0.0 sec)

Property integrals calculated in   0.0 sec

Maximum memory used throughout the entire PROPINT-calculation: 17.4 MB


-------------------------------------------------------------------------------
                          DFT DISPERSION CORRECTION                            
                                                                               
                              DFTD3 V3.1  Rev 1                                
                          USING Becke-Johnson damping                          
-------------------------------------------------------------------------------
-------------------------   ----------------
Dispersion correction           -0.059765930
-------------------------   ----------------

------------------   -----------------
SRB correction            -0.079769767
------------------   -----------------

-------------------------   --------------------
FINAL SINGLE POINT ENERGY      -464.265315750031
-------------------------   --------------------



           ************************************************************
           *        Program running with 4 parallel MPI-processes     *
           *              working on a common directory               *
           ************************************************************
------------------------------------------------------------------------------
                         ORCA SCF GRADIENT CALCULATION
------------------------------------------------------------------------------

Nuc. rep. gradient        (SHARK) ... done (  0.0 sec)
HCore & Overlap gradient  (SHARK) ... done (  0.3 sec)
Split-RIJ-J gradient      (SHARK) ... done (  1.3 sec)
XC gradient                       ... done (  6.9 sec)
Dispersion correction             ... done (  0.1 sec)

-------------------
DISPERSION GRADIENT
-------------------

   1   C   :   -0.000169145    0.000611362   -0.000700006
   2   C   :    0.000337008    0.000327836   -0.001046964
   3   C   :    0.000337063   -0.000327896   -0.001046977
   4   C   :   -0.000169136   -0.000611287   -0.000699998
   5   C   :   -0.000613794   -0.000284179   -0.000452688
   6   C   :   -0.000613698    0.000284140   -0.000452657
   7   H   :   -0.000035681    0.000444323   -0.000134253
   8   H   :    0.000356831    0.000244834   -0.000305800
   9   H   :    0.000356829   -0.000244837   -0.000305774
  10   H   :   -0.000035659   -0.000444296   -0.000134241
  11   H   :   -0.000376491   -0.000207379   -0.000054000
  12   H   :   -0.000376481    0.000207380   -0.000054023
  13   C   :    0.000169156    0.000611490    0.000699990
  14   C   :    0.000613614    0.000284160    0.000452651
  15   C   :    0.000613656   -0.000284195    0.000452659
  16   C   :    0.000169132   -0.000611396    0.000699978
  17   C   :   -0.000336961   -0.000327929    0.001046991
  18   C   :   -0.000336909    0.000327868    0.001047010
  19   H   :    0.000035682    0.000444329    0.000134238
  20   H   :    0.000376484    0.000207369    0.000054027
  21   H   :    0.000376487   -0.000207372    0.000054016
  22   H   :    0.000035668   -0.000444309    0.000134236
  23   H   :   -0.000356826   -0.000244836    0.000305805
  24   H   :   -0.000356831    0.000244823    0.000305781

Difference to translation invariance:
           :    0.0000000000    0.0000000000   -0.0000000000

Difference to rotation invariance:
           :   -0.0000000000    0.0000000000    0.0000000000

Norm of the Dispersion gradient    ...    0.0037720317
RMS gradient                       ...    0.0004445382
MAX gradient                       ...    0.0010470103
SRB correction                   ... done

------------------
CARTESIAN GRADIENT
------------------

   1   C   :    0.000005649    0.000209233    0.000226638
   2   C   :    0.000222769    0.000156342    0.000296849
   3   C   :    0.000231740   -0.000165443    0.000320627
   4   C   :    0.000000047   -0.000196234    0.000220919
   5   C   :   -0.000062631    0.000125154   -0.000192975
   6   C   :   -0.000054387   -0.000130557   -0.000227881
   7   H   :   -0.000035785   -0.000102404   -0.000173841
   8   H   :   -0.000108498    0.000022335   -0.000545122
   9   H   :   -0.000108101   -0.000020936   -0.000545377
  10   H   :   -0.000032500    0.000102332   -0.000187530
  11   H   :    0.000068762    0.000036101   -0.000010662
  12   H   :    0.000068057   -0.000035815   -0.000012025
  13   C   :   -0.000004764    0.000232636   -0.000223373
  14   C   :    0.000051437   -0.000142479    0.000220467
  15   C   :    0.000051384    0.000134085    0.000211029
  16   C   :   -0.000007531   -0.000212095   -0.000222785
  17   C   :   -0.000217479   -0.000166455   -0.000311857
  18   C   :   -0.000217574    0.000154681   -0.000314517
  19   H   :    0.000036070   -0.000101547    0.000174023
  20   H   :   -0.000069192   -0.000034907    0.000011161
  21   H   :   -0.000069494    0.000035306    0.000007489
  22   H   :    0.000034503    0.000102364    0.000181474
  23   H   :    0.000108543   -0.000021934    0.000544620
  24   H   :    0.000108975    0.000020235    0.000552650

Difference to translation invariance:
           :    0.0000000000    0.0000000000    0.0000000000

Difference to rotation invariance:
           :   -0.0000000240    0.0000771819   -0.0000001252

Norm of the Cartesian gradient     ...    0.0016674503
RMS gradient                       ...    0.0001965109
MAX gradient                       ...    0.0005526498

-------
TIMINGS
-------

Total SCF gradient time     ....        8.641 sec

Densities                   ....       0.002 sec  (  0.0%)
One electron gradient       ....       0.312 sec  (  3.6%)
RI-J Coulomb gradient       ....       1.347 sec  ( 15.6%)
XC gradient                 ....       6.909 sec  ( 80.0%)

Maximum memory used throughout the entire SCFGRAD-calculation: 37.0 MB
------------------------------------------------------------------------------
                         ORCA GEOMETRY RELAXATION STEP
------------------------------------------------------------------------------

Reading the OPT-File                    .... done
Getting information on internals        .... done
Copying old internal coords+grads       .... done
Making the new internal coordinates     .... (2022 redundants) done
Validating the new internal coordinates .... (2022 redundants) done
Calculating the B-matrix                .... done
Calculating the G,G- and P matrices     .... done
Transforming gradient to internals      .... done
Projecting the internal gradient        .... done
Number of atoms                         ....  24
Number of internal coordinates          .... 1130
Current Energy                          ....  -464.265315750 Eh
Current gradient norm                   ....     0.001667450 Eh/bohr
Maximum allowed component of the step   ....  0.300
Current trust radius                    ....  0.450
Updating the Hessian (BFGS)             .... done
Forming the augmented Hessian           .... done
Diagonalizing the augmented Hessian     .... done
Last element of RFO vector              ....  0.999882588
Lowest eigenvalues of augmented Hessian:
 -0.000004866  0.010166351  0.014020385  0.018179599  0.018338750
Length of the computed step             ....  0.015325323
The final length of the internal step   ....  0.015325323
Converting the step to Cartesian space:
 Initial RMS(Int)=    0.0004559009
Transforming coordinates:
 Iter   0:  RMS(Cart)=    0.0005144601 RMS(Int)=    0.7238888708
done
Storing new coordinates                 .... done
The predicted energy change is          ....    -0.000002433
Previously predicted energy change      ....    -0.000043767
Actually observed energy change         ....    -0.000046378
Ratio of predicted to observed change   ....     1.059652019
New trust radius                        ....     0.675000000

                                .--------------------.
          ----------------------|Geometry convergence|-------------------------
          Item                value                   Tolerance       Converged
          ---------------------------------------------------------------------
          Energy change      -0.0000463778            0.0000050000      NO
          RMS gradient        0.0000155475            0.0001000000      YES
          MAX gradient        0.0001025058            0.0003000000      YES
          RMS step            0.0004559009            0.0020000000      YES
          MAX step            0.0024388435            0.0040000000      YES
          -------------------------------------------------------------------------
          ........................................................
          Max(Bonds)      0.0013      Max(Angles)    0.04
          Max(Dihed)        0.06      Max(Improp)    0.00
          ---------------------------------------------------------------------

       Everything but the energy has converged. However, the energy
       appears to be close enough to convergence to make sure that the
       final evaluation at the new geometry represents the equilibrium energy.
       Convergence will therefore be signaled now


                    ***********************HURRAY********************
                    ***        THE OPTIMIZATION HAS CONVERGED     ***
                    *************************************************


    ---------------------------------------------------------------------------
                         Redundant Internal Coordinates

                          --- Optimized Parameters ---  
                            (Angstroem and degrees)

        Definition                    OldVal   dE/dq     Step     FinalVal
    ----------------------------------------------------------------------------
     1. B(C   1,C   0)                1.3878  0.000003 -0.0001    1.3877   
     2. B(C   2,C   1)                1.3871  0.000031 -0.0003    1.3868   
     3. B(C   3,C   2)                1.3878  0.000002 -0.0001    1.3877   
     4. B(C   4,C   3)                1.3877  0.000031 -0.0001    1.3876   
     5. B(C   5,C   4)                1.3882 -0.000038 -0.0000    1.3882   
     6. B(C   5,C   0)                1.3877  0.000030 -0.0001    1.3876   
     7. B(H   6,C   0)                1.0821 -0.000103  0.0001    1.0822   
     8. B(H   7,C   1)                1.0815 -0.000087  0.0001    1.0817   
     9. B(H   8,C   2)                1.0815 -0.000088  0.0001    1.0816   
    10. B(H   9,C   3)                1.0821 -0.000101  0.0001    1.0823   
    11. B(H  10,C   4)                1.0823 -0.000077  0.0001    1.0824   
    12. B(H  11,C   5)                1.0823 -0.000078  0.0001    1.0824   
    13. B(C  12,C   5)                4.6122  0.000005 -0.0005    4.6117   
    14. B(C  12,C   0)                3.9388 -0.000021 -0.0002    3.9386   
    15. B(C  12,C   2)                4.1778  0.000004 -0.0004    4.1774   
    16. B(C  12,H   7)                3.6450  0.000038 -0.0010    3.6441   
    17. B(C  12,C   1)                3.6885 -0.000014 -0.0002    3.6883   
    18. B(C  12,H   8)                4.4874  0.000023 -0.0009    4.4864   
    19. B(C  12,H   6)                4.0848 -0.000010 -0.0005    4.0843   
    20. B(C  13,C  12)                1.3877  0.000026 -0.0001    1.3876   
    21. B(C  13,C   0)                4.6122  0.000001 -0.0005    4.6117   
    22. B(C  13,C   1)                3.9385 -0.000002 -0.0005    3.9380   
    23. B(C  13,C   2)                4.1758  0.000001 -0.0005    4.1752   
    24. B(C  13,H   7)                3.7001  0.000068 -0.0013    3.6988   
    25. B(C  13,H   8)                4.1374  0.000045 -0.0011    4.1362   
    26. B(C  14,C  13)                1.3882 -0.000027  0.0000    1.3882   
    27. B(C  14,C   3)                4.6122  0.000004 -0.0005    4.6117   
    28. B(C  14,C   2)                3.9384 -0.000001 -0.0005    3.9380   
    29. B(C  14,H   8)                3.7001  0.000066 -0.0012    3.6989   
    30. B(C  14,C   1)                4.1758 -0.000003 -0.0005    4.1753   
    31. B(C  14,H   7)                4.1373  0.000046 -0.0012    4.1361   
    32. B(C  15,H   8)                3.6451  0.000035 -0.0009    3.6442   
    33. B(C  15,C   4)                4.6121  0.000004 -0.0005    4.6117   
    34. B(C  15,H   7)                4.4873  0.000023 -0.0009    4.4864   
    35. B(C  15,C   3)                3.9388 -0.000017 -0.0003    3.9386   
    36. B(C  15,C   1)                4.1778 -0.000000 -0.0003    4.1774   
    37. B(C  15,C  14)                1.3877  0.000025 -0.0001    1.3876   
    38. B(C  15,H   9)                4.0851 -0.000012 -0.0005    4.0845   
    39. B(C  15,C   2)                3.6885 -0.000013 -0.0002    3.6883   
    40. B(C  16,H   9)                4.0349 -0.000025 -0.0005    4.0344   
    41. B(C  16,C   1)                3.9429  0.000007 -0.0004    3.9425   
    42. B(C  16,C   4)                3.9383  0.000001 -0.0005    3.9379   
    43. B(C  16,H   7)                4.4418  0.000015 -0.0009    4.4409   
    44. B(C  16,H  10)                4.4367 -0.000044 -0.0004    4.4363   
    45. B(C  16,C   0)                4.1777 -0.000001 -0.0003    4.1774   
    46. B(C  16,C   5)                4.1757 -0.000002 -0.0005    4.1752   
    47. B(C  16,H   8)                4.0381  0.000013 -0.0009    4.0372   
    48. B(C  16,C   2)                3.6908 -0.000001 -0.0003    3.6905   
    49. B(C  16,C   3)                3.6885 -0.000010 -0.0003    3.6882   
    50. B(C  16,C  15)                1.3878  0.000002 -0.0001    1.3877   
    51. B(C  17,H   7)                4.0380  0.000017 -0.0009    4.0371   
    52. B(C  17,H   6)                4.0346 -0.000022 -0.0005    4.0341   
    53. B(C  17,C   5)                3.9384  0.000003 -0.0005    3.9379   
    54. B(C  17,C   0)                3.6885 -0.000012 -0.0002    3.6882   
    55. B(C  17,H  11)                4.4367 -0.000042 -0.0004    4.4363   
    56. B(C  17,C   2)                3.9429  0.000012 -0.0004    3.9424   
    57. B(C  17,H   8)                4.4418  0.000015 -0.0009    4.4409   
    58. B(C  17,C   3)                4.1777  0.000006 -0.0004    4.1773   
    59. B(C  17,C   4)                4.1756  0.000002 -0.0005    4.1751   
    60. B(C  17,C  16)                1.3871  0.000025 -0.0003    1.3868   
    61. B(C  17,C  12)                1.3878  0.000004 -0.0001    1.3877   
    62. B(C  17,C   1)                3.6909 -0.000000 -0.0003    3.6905   
    63. B(H  18,C   1)                4.0347 -0.000025 -0.0005    4.0341   
    64. B(H  18,H   6)                3.9389  0.000055 -0.0009    3.9379   
    65. B(H  18,H   7)                3.8457  0.000044 -0.0012    3.8445   
    66. B(H  18,C  12)                1.0821 -0.000101  0.0001    1.0822   
    67. B(H  18,C   0)                4.0848 -0.000011 -0.0005    4.0843   
    68. B(H  19,H   8)                4.6501  0.000010 -0.0010    4.6491   
    69. B(H  19,H   7)                3.9399  0.000058 -0.0012    3.9387   
    70. B(H  19,C   1)                4.4368 -0.000047 -0.0004    4.4364   
    71. B(H  19,C  13)                1.0823 -0.000077  0.0001    1.0824   
    72. B(H  20,H   8)                3.9399  0.000055 -0.0011    3.9388   
    73. B(H  20,H   7)                4.6500  0.000010 -0.0010    4.6490   
    74. B(H  20,C  14)                1.0823 -0.000077  0.0001    1.0824   
    75. B(H  20,C   2)                4.4367 -0.000047 -0.0004    4.4364   
    76. B(H  21,C   2)                4.0347 -0.000027 -0.0005    4.0343   
    77. B(H  21,H   9)                3.9393  0.000049 -0.0009    3.9384   
    78. B(H  21,C  15)                1.0821 -0.000101  0.0001    1.0822   
    79. B(H  21,H   8)                3.8459  0.000040 -0.0011    3.8448   
    80. B(H  21,C   3)                4.0849 -0.000010 -0.0005    4.0844   
    81. B(H  22,C   2)                4.0380  0.000015 -0.0009    4.0371   
    82. B(H  22,C   3)                3.6450  0.000039 -0.0010    3.6440   
    83. B(H  22,H  11)                4.6500  0.000008 -0.0010    4.6489   
    84. B(H  22,H   8)                4.4899  0.000001 -0.0013    4.4886   
    85. B(H  22,C  16)                1.0815 -0.000085  0.0001    1.0817   
    86. B(H  22,H  10)                3.9398  0.000059 -0.0012    3.9386   
    87. B(H  22,C   0)                4.4872  0.000021 -0.0009    4.4863   
    88. B(H  22,C   1)                4.4418  0.000014 -0.0009    4.4409   
    89. B(H  22,H   9)                3.8460  0.000041 -0.0012    3.8448   
    90. B(H  22,C   4)                3.6999  0.000069 -0.0013    3.6987   
    91. B(H  22,C   5)                4.1373  0.000043 -0.0012    4.1361   
    92. B(H  23,C   0)                3.6451  0.000030 -0.0008    3.6443   
    93. B(H  23,H  11)                3.9400  0.000055 -0.0011    3.9389   
    94. B(H  23,H  10)                4.6500  0.000005 -0.0010    4.6490   
    95. B(H  23,C  17)                1.0815 -0.000084  0.0001    1.0816   
    96. B(H  23,H   7)                4.4899 -0.000001 -0.0012    4.4887   
    97. B(H  23,C   3)                4.4873  0.000022 -0.0009    4.4864   
    98. B(H  23,C   2)                4.4419  0.000013 -0.0009    4.4410   
    99. B(H  23,H   6)                3.8458  0.000038 -0.0011    3.8447   
   100. B(H  23,C   4)                4.1373  0.000040 -0.0011    4.1362   
   101. B(H  23,C   5)                3.7001  0.000065 -0.0012    3.6990   
   102. B(H  23,C   1)                4.0381  0.000010 -0.0008    4.0373   
   103. A(C   1,C   0,C   5)          120.03 -0.000005    0.01    120.04   
   104. A(H   6,C   0,C  13)           98.64  0.000021   -0.02     98.63   
   105. A(C   1,C   0,C  17)           79.26  0.000004   -0.00     79.25   
   106. A(C   5,C   0,C  17)           89.89  0.000002   -0.01     89.88   
   107. A(H   6,C   0,C  12)           90.00  0.000019   -0.02     89.98   
   108. A(C   5,C   0,C  16)           80.36 -0.000002   -0.01     80.35   
   109. A(C  12,C   0,C  16)           34.28  0.000004   -0.00     34.28   
   110. A(C  12,C   0,C  13)           16.37  0.000003    0.00     16.37   
   111. A(C   1,C   0,C  13)           53.10 -0.000001   -0.00     53.09   
   112. A(C   1,C   0,H   6)          119.99  0.000003   -0.00    119.98   
   113. A(C   5,C   0,C  13)          116.75  0.000000   -0.01    116.74   
   114. A(C  16,C   0,C  17)           19.03  0.000003   -0.00     19.03   
   115. A(C  13,C   0,C  16)           36.39  0.000002    0.00     36.39   
   116. A(C  13,C   0,C  17)           31.22  0.000003    0.00     31.22   
   117. A(H   6,C   0,C  16)          119.88  0.000023   -0.02    119.86   
   118. A(C  12,C   0,C  17)           20.63  0.000002   -0.00     20.63   
   119. A(C   5,C   0,C  12)          110.52  0.000003   -0.01    110.51   
   120. A(C   1,C   0,C  16)           70.70  0.000003   -0.00     70.70   
   121. A(C   5,C   0,H   6)          119.98  0.000002   -0.00    119.98   
   122. A(C   1,C   0,C  12)           69.46  0.000002   -0.00     69.46   
   123. A(H   6,C   0,C  17)          100.85  0.000019   -0.02    100.83   
   124. A(C  13,C   1,C  14)           19.42 -0.000003    0.00     19.42   
   125. A(C   2,C   1,C  12)          100.84  0.000001   -0.00    100.84   
   126. A(C  14,C   1,C  16)           34.30  0.000003    0.00     34.30   
   127. A(C   2,C   1,C  13)           90.01 -0.000003    0.00     90.01   
   128. A(C   0,C   1,C  16)           89.90 -0.000003    0.00     89.90   
   129. A(C   0,C   1,C  15)          109.30 -0.000003    0.00    109.30   
   130. A(C  13,C   1,C  16)           41.24  0.000002    0.00     41.24   
   131. A(H   7,C   1,C  14)           80.51  0.000028   -0.04     80.47   
   132. A(H   7,C   1,C  15)           99.63  0.000031   -0.04     99.60   
   133. A(C   0,C   1,C  12)           89.90 -0.000003    0.00     89.91   
   134. A(C   2,C   1,C  17)           90.00  0.000000   -0.00     90.00   
   135. A(H   7,C   1,C  16)          110.69  0.000033   -0.04    110.65   
   136. A(C  16,C   1,C  17)           20.60  0.000003   -0.00     20.59   
   137. A(C   0,C   1,C  13)          110.53  0.000000    0.00    110.54   
   138. A(C   0,C   1,C  14)          119.80 -0.000002    0.01    119.81   
   139. A(H   7,C   1,C  12)           79.25  0.000030   -0.04     79.21   
   140. A(H   7,C   1,C  13)           69.45  0.000031   -0.04     69.41   
   141. A(C   0,C   1,C   2)          119.99 -0.000002   -0.00    119.99   
   142. A(C  12,C   1,C  13)           20.63  0.000004    0.00     20.63   
   143. A(C   2,C   1,H   7)          120.00  0.000005   -0.00    120.00   
   144. A(C  15,C   1,C  16)           19.40  0.000000   -0.00     19.40   
   145. A(C   0,C   1,H   7)          120.01 -0.000003    0.00    120.01   
   146. A(C  13,C   1,C  15)           34.29  0.000001    0.00     34.29   
   147. A(C   2,C   1,C  16)           69.40 -0.000003    0.00     69.40   
   148. A(C  15,C   1,C  17)           34.87  0.000003   -0.00     34.87   
   149. A(C   2,C   1,C  15)           60.13 -0.000003    0.00     60.13   
   150. A(H   7,C   1,C  17)          100.93  0.000031   -0.04    100.89   
   151. A(C  14,C   1,C  17)           40.74  0.000003    0.00     40.74   
   152. A(C   0,C   1,C  17)           79.06 -0.000005    0.00     79.07   
   153. A(C  14,C   1,C  15)           19.12  0.000003    0.00     19.12   
   154. A(C  12,C   1,C  15)           40.72  0.000004   -0.00     40.71   
   155. A(C   2,C   1,C  14)           70.59  0.000001   -0.00     70.59   
   156. A(C  12,C   1,C  17)           21.68  0.000001   -0.00     21.68   
   157. A(C  13,C   1,C  17)           36.55  0.000003    0.00     36.55   
   158. A(C  12,C   1,C  16)           36.52  0.000003   -0.00     36.51   
   159. A(C  12,C   1,C  14)           34.90  0.000001    0.00     34.90   
   160. A(C   1,C   2,H   8)          120.00  0.000005   -0.00    120.00   
   161. A(C  15,C   2,C  17)           36.52  0.000003   -0.00     36.51   
   162. A(C  15,C   2,C  16)           21.68  0.000001   -0.00     21.68   
   163. A(C   1,C   2,C  12)           60.13 -0.000005    0.00     60.13   
   164. A(C  14,C   2,C  16)           36.55  0.000003    0.00     36.55   
   165. A(C   1,C   2,C  17)           69.40 -0.000004    0.00     69.41   
   166. A(C  12,C   2,C  13)           19.12  0.000003    0.00     19.13   
   167. A(C   1,C   2,C  14)           90.01 -0.000005    0.00     90.01   
   168. A(C  12,C   2,C  17)           19.40  0.000000   -0.00     19.40   
   169. A(C   3,C   2,C  14)          110.54  0.000001    0.00    110.54   
   170. A(C   3,C   2,C  16)           79.06 -0.000004    0.00     79.07   
   171. A(H   8,C   2,C  14)           69.45  0.000029   -0.04     69.41   
   172. A(H   8,C   2,C  16)          100.93  0.000029   -0.04    100.89   
   173. A(C  13,C   2,C  14)           19.42 -0.000004    0.00     19.42   
   174. A(C  12,C   2,C  16)           34.87  0.000003   -0.00     34.87   
   175. A(C  14,C   2,C  17)           41.24  0.000002    0.00     41.25   
   176. A(H   8,C   2,C  15)           79.25  0.000028   -0.04     79.22   
   177. A(C   3,C   2,C  15)           89.91 -0.000002    0.00     89.91   
   178. A(C   3,C   2,C  13)          119.81 -0.000001    0.00    119.81   
   179. A(C   1,C   2,C  13)           70.59 -0.000001    0.00     70.59   
   180. A(C   3,C   2,H   8)          120.01 -0.000003    0.00    120.01   
   181. A(C  13,C   2,C  15)           34.90  0.000001    0.00     34.90   
   182. A(H   8,C   2,C  17)          110.70  0.000031   -0.04    110.66   
   183. A(C  12,C   2,C  15)           40.72  0.000003   -0.00     40.71   
   184. A(C  12,C   2,C  14)           34.29  0.000001    0.00     34.29   
   185. A(C   3,C   2,C  12)          109.30 -0.000002    0.00    109.30   
   186. A(C   1,C   2,C  16)           90.00 -0.000001    0.00     90.00   
   187. A(H   8,C   2,C  13)           80.51  0.000026   -0.03     80.48   
   188. A(C   1,C   2,C   3)          119.99 -0.000002    0.00    119.99   
   189. A(C   3,C   2,C  17)           89.90 -0.000002    0.00     89.90   
   190. A(C  13,C   2,C  17)           34.30  0.000002    0.00     34.30   
   191. A(C  16,C   2,C  17)           20.60  0.000003   -0.00     20.60   
   192. A(H   8,C   2,C  12)           99.64  0.000029   -0.03     99.60   
   193. A(C  14,C   2,C  15)           20.63  0.000004    0.00     20.63   
   194. A(C   1,C   2,C  15)          100.84 -0.000001    0.00    100.84   
   195. A(C  13,C   2,C  16)           40.74  0.000002    0.00     40.74   
   196. A(C  14,C   3,C  15)           16.37  0.000002    0.00     16.37   
   197. A(C   2,C   3,C  14)           53.10 -0.000001   -0.00     53.09   
   198. A(C   4,C   3,C  16)           89.89 -0.000000   -0.01     89.88   
   199. A(C   2,C   3,C  16)           79.25  0.000003   -0.00     79.25   
   200. A(H   9,C   3,C  16)          100.86  0.000016   -0.02    100.84   
   201. A(C  15,C   3,C  17)           34.28  0.000003   -0.00     34.28   
   202. A(C  16,C   3,C  17)           19.03  0.000003   -0.00     19.03   
   203. A(C   4,C   3,C  17)           80.35 -0.000004   -0.00     80.35   
   204. A(C   2,C   3,C  17)           70.70  0.000002   -0.00     70.70   
   205. A(C   2,C   3,C   4)          120.04 -0.000005    0.01    120.04   
   206. A(C  15,C   3,C  16)           20.63  0.000001   -0.00     20.63   
   207. A(C  14,C   3,C  17)           36.39  0.000002    0.00     36.39   
   208. A(C   2,C   3,H   9)          119.98  0.000002   -0.00    119.98   
   209. A(H   9,C   3,C  17)          119.89  0.000019   -0.02    119.87   
   210. A(H   9,C   3,C  15)           90.01  0.000016   -0.02     90.00   
   211. A(C   4,C   3,C  15)          110.52  0.000001   -0.01    110.51   
   212. A(C   2,C   3,C  15)           69.46  0.000001   -0.00     69.46   
   213. A(H   9,C   3,C  14)           98.65  0.000017   -0.02     98.64   
   214. A(C   4,C   3,H   9)          119.98  0.000003   -0.00    119.98   
   215. A(C   4,C   3,C  14)          116.75 -0.000002   -0.00    116.74   
   216. A(C  14,C   3,C  16)           31.22  0.000002    0.00     31.22   
   217. A(C   3,C   4,H  10)          120.02 -0.000007    0.00    120.02   
   218. A(C   3,C   4,C  16)           69.48 -0.000004    0.01     69.49   
   219. A(C   5,C   4,C  17)           70.59  0.000001   -0.00     70.59   
   220. A(C   5,C   4,H  10)          120.01  0.000000    0.00    120.02   
   221. A(H  10,C   4,C  17)          119.89  0.000000    0.00    119.89   
   222. A(C   3,C   4,C  17)           80.52 -0.000000    0.00     80.53   
   223. A(C   3,C   4,C   5)          119.97  0.000007   -0.01    119.96   
   224. A(H  10,C   4,C  16)          110.62 -0.000001    0.00    110.62   
   225. A(H  10,C   4,C  15)          116.82 -0.000001    0.00    116.82   
   226. A(C  15,C   4,C  16)           16.37 -0.000000   -0.00     16.37   
   227. A(C   5,C   4,C  15)           98.65  0.000003   -0.00     98.65   
   228. A(C   3,C   4,C  15)           53.11 -0.000004    0.01     53.12   
   229. A(C  16,C   4,C  17)           19.40  0.000003   -0.00     19.40   
   230. A(C   5,C   4,C  16)           90.00  0.000004   -0.00     89.99   
   231. A(C  15,C   4,C  17)           31.24  0.000002   -0.00     31.24   
   232. A(C  12,C   5,C  16)           31.24  0.000003   -0.00     31.24   
   233. A(C   0,C   5,C   4)          119.97  0.000007   -0.01    119.96   
   234. A(H  11,C   5,C  17)          110.62 -0.000001    0.00    110.62   
   235. A(C   4,C   5,C  17)           89.99  0.000004   -0.00     89.99   
   236. A(C   0,C   5,C  17)           69.48 -0.000006    0.01     69.49   
   237. A(C  16,C   5,C  17)           19.40  0.000003   -0.00     19.40   
   238. A(H  11,C   5,C  16)          119.89  0.000001    0.00    119.89   
   239. A(C   4,C   5,C  16)           70.59  0.000001   -0.00     70.59   
   240. A(C   0,C   5,C  16)           80.52 -0.000002    0.01     80.52   
   241. A(C   4,C   5,H  11)          120.01 -0.000001    0.00    120.02   
   242. A(C   0,C   5,H  11)          120.02 -0.000007    0.00    120.02   
   243. A(C  12,C   5,C  17)           16.37  0.000000   -0.00     16.37   
   244. A(H  11,C   5,C  12)          116.82 -0.000000    0.00    116.82   
   245. A(C   4,C   5,C  12)           98.64  0.000004   -0.00     98.64   
   246. A(C   0,C   5,C  12)           53.11 -0.000006    0.01     53.12   
   247. A(C   1,C  12,C   2)           19.03  0.000004   -0.00     19.03   
   248. A(C   2,C  12,H  18)          119.88  0.000022   -0.02    119.86   
   249. A(C   2,C  12,C  17)           70.70  0.000003   -0.00     70.69   
   250. A(C   2,C  12,C  13)           80.36 -0.000003   -0.01     80.35   
   251. A(C   1,C  12,H  18)          100.85  0.000018   -0.02    100.83   
   252. A(C   1,C  12,C  17)           79.25  0.000005   -0.00     79.25   
   253. A(C  17,C  12,H  18)          119.99  0.000003   -0.00    119.98   
   254. A(C   1,C  12,C  13)           89.89  0.000001   -0.01     89.88   
   255. A(C  13,C  12,H  18)          119.98  0.000000   -0.00    119.98   
   256. A(C   0,C  12,C   5)           16.37  0.000003    0.00     16.37   
   257. A(C   0,C  12,C   1)           20.63  0.000001   -0.00     20.63   
   258. A(C   0,C  12,H  18)           90.00  0.000018   -0.02     89.98   
   259. A(C   0,C  12,C  17)           69.46  0.000003   -0.00     69.46   
   260. A(C   0,C  12,C  13)          110.52  0.000002   -0.01    110.51   
   261. A(C  13,C  12,C  17)          120.03 -0.000004    0.01    120.04   
   262. A(C   0,C  12,C   2)           34.28  0.000004   -0.00     34.28   
   263. A(C   2,C  12,C   5)           36.39  0.000002    0.00     36.40   
   264. A(C   1,C  12,C   5)           31.22  0.000002    0.00     31.22   
   265. A(C   5,C  12,H  18)           98.64  0.000020   -0.02     98.63   
   266. A(C   5,C  12,C  17)           53.10 -0.000000   -0.00     53.09   
   267. A(C   5,C  12,C  13)          116.75 -0.000001   -0.00    116.75   
   268. A(C   1,C  13,H  19)          110.62 -0.000001    0.00    110.62   
   269. A(C   1,C  13,C  14)           89.99  0.000003   -0.00     89.99   
   270. A(C   1,C  13,C  12)           69.48 -0.000005    0.01     69.48   
   271. A(C  14,C  13,H  19)          120.01 -0.000001    0.00    120.01   
   272. A(C  12,C  13,H  19)          120.01 -0.000004    0.00    120.02   
   273. A(C   0,C  13,C  14)           98.64  0.000002   -0.00     98.64   
   274. A(C   1,C  13,C   2)           19.40  0.000004   -0.00     19.40   
   275. A(C   2,C  13,H  19)          119.89  0.000000    0.00    119.89   
   276. A(C   2,C  13,C  14)           70.59 -0.000001    0.00     70.59   
   277. A(C   2,C  13,C  12)           80.52 -0.000001    0.00     80.52   
   278. A(C  12,C  13,C  14)          119.97  0.000005   -0.01    119.97   
   279. A(C   0,C  13,C   2)           31.24  0.000003   -0.00     31.24   
   280. A(C   0,C  13,C   1)           16.37  0.000000   -0.00     16.37   
   281. A(C   0,C  13,H  19)          116.82 -0.000000    0.00    116.82   
   282. A(C   0,C  13,C  12)           53.11 -0.000005    0.01     53.12   
   283. A(C   1,C  14,C   3)           31.24  0.000003   -0.00     31.24   
   284. A(C   2,C  14,C   3)           16.37 -0.000000   -0.00     16.37   
   285. A(C   3,C  14,H  20)          116.82 -0.000001    0.00    116.82   
   286. A(C   3,C  14,C  13)           98.65  0.000003   -0.00     98.64   
   287. A(C  15,C  14,H  20)          120.01 -0.000004    0.00    120.02   
   288. A(C  13,C  14,H  20)          120.01 -0.000001    0.00    120.01   
   289. A(C   2,C  14,H  20)          110.62 -0.000002    0.00    110.62   
   290. A(C   2,C  14,C  15)           69.48 -0.000005    0.01     69.49   
   291. A(C   2,C  14,C  13)           89.99  0.000004   -0.00     89.99   
   292. A(C   1,C  14,C   2)           19.40  0.000004   -0.00     19.40   
   293. A(C   1,C  14,H  20)          119.89  0.000000    0.00    119.89   
   294. A(C   1,C  14,C  15)           80.52 -0.000001    0.01     80.53   
   295. A(C   1,C  14,C  13)           70.59  0.000000   -0.00     70.59   
   296. A(C  13,C  14,C  15)          119.97  0.000005   -0.01    119.97   
   297. A(C   3,C  14,C  15)           53.11 -0.000005    0.01     53.12   
   298. A(C  14,C  15,H  21)          119.98  0.000000   -0.00    119.98   
   299. A(C   1,C  15,C   3)           34.28  0.000004   -0.00     34.28   
   300. A(C   1,C  15,C   2)           19.03  0.000004   -0.00     19.03   
   301. A(C   1,C  15,H  21)          119.88  0.000021   -0.02    119.87   
   302. A(C   1,C  15,C  16)           70.70  0.000003   -0.00     70.69   
   303. A(C   1,C  15,C  14)           80.36 -0.000003   -0.01     80.35   
   304. A(C   2,C  15,H  21)          100.85  0.000016   -0.02    100.84   
   305. A(C   2,C  15,C  16)           79.25  0.000004   -0.00     79.25   
   306. A(C   2,C  15,C  14)           89.89  0.000001   -0.01     89.88   
   307. A(C  14,C  15,C  16)          120.03 -0.000003    0.01    120.04   
   308. A(C   2,C  15,C   3)           20.63  0.000001   -0.00     20.63   
   309. A(C   3,C  15,H  21)           90.01  0.000017   -0.02     89.99   
   310. A(C   3,C  15,C  16)           69.46  0.000002   -0.00     69.46   
   311. A(C   3,C  15,C  14)          110.52  0.000002   -0.01    110.51   
   312. A(C   1,C  15,C   4)           36.39  0.000002    0.00     36.40   
   313. A(C   2,C  15,C   4)           31.22  0.000003    0.00     31.22   
   314. A(C   4,C  15,C  16)           53.09 -0.000001   -0.00     53.09   
   315. A(C   4,C  15,C  14)          116.75 -0.000001   -0.00    116.75   
   316. A(C   3,C  15,C   4)           16.37  0.000003    0.00     16.37   
   317. A(C   4,C  15,H  21)           98.65  0.000019   -0.02     98.63   
   318. A(C  16,C  15,H  21)          119.99  0.000003   -0.00    119.98   
   319. A(C   2,C  16,C   4)           36.55  0.000003    0.00     36.56   
   320. A(C   3,C  16,C   4)           20.63  0.000004    0.00     20.63   
   321. A(C   4,C  16,H  22)           69.45  0.000030   -0.04     69.41   
   322. A(C   4,C  16,C  17)           90.01 -0.000003    0.00     90.01   
   323. A(C   4,C  16,C  15)          110.54  0.000001    0.00    110.54   
   324. A(C   3,C  16,H  22)           79.25  0.000028   -0.04     79.21   
   325. A(C   3,C  16,C  17)          100.84  0.000001   -0.00    100.84   
   326. A(C   3,C  16,C  15)           89.91 -0.000003    0.00     89.91   
   327. A(C   0,C  16,C   5)           19.13  0.000004    0.00     19.13   
   328. A(C   0,C  16,C   1)           19.40  0.000000   -0.00     19.40   
   329. A(C   0,C  16,C   4)           34.29  0.000000    0.00     34.29   
   330. A(C   0,C  16,C   2)           34.87  0.000004   -0.00     34.87   
   331. A(C   0,C  16,C   3)           40.71  0.000004   -0.00     40.71   
   332. A(C   0,C  16,H  22)           99.63  0.000030   -0.04     99.60   
   333. A(C   0,C  16,C  17)           60.13 -0.000003    0.00     60.13   
   334. A(C   0,C  16,C  15)          109.30 -0.000002    0.00    109.31   
   335. A(C  15,C  16,C  17)          119.99 -0.000002    0.00    120.00   
   336. A(C   1,C  16,C   5)           34.30  0.000003    0.00     34.30   
   337. A(C   4,C  16,C   5)           19.42 -0.000005    0.00     19.42   
   338. A(C   2,C  16,C   5)           40.74  0.000003    0.00     40.74   
   339. A(C   3,C  16,C   5)           34.90  0.000001    0.00     34.90   
   340. A(C   5,C  16,H  22)           80.51  0.000026   -0.04     80.47   
   341. A(C   5,C  16,C  17)           70.59  0.000002   -0.00     70.59   
   342. A(C   5,C  16,C  15)          119.81 -0.000002    0.00    119.81   
   343. A(C   2,C  16,C   3)           21.68  0.000001   -0.00     21.68   
   344. A(C   1,C  16,C   4)           41.24  0.000002    0.00     41.25   
   345. A(C   2,C  16,H  22)          100.93  0.000029   -0.04    100.89   
   346. A(C   1,C  16,C   2)           20.60  0.000004   -0.00     20.59   
   347. A(C   2,C  16,C  17)           90.00  0.000002   -0.00     90.00   
   348. A(C   1,C  16,C   3)           36.52  0.000004   -0.00     36.51   
   349. A(C   2,C  16,C  15)           79.06 -0.000005    0.00     79.07   
   350. A(C   1,C  16,H  22)          110.69  0.000032   -0.04    110.65   
   351. A(C   1,C  16,C  17)           69.40 -0.000003    0.00     69.40   
   352. A(C   1,C  16,C  15)           89.90 -0.000003    0.00     89.90   
   353. A(C  17,C  16,H  22)          120.00  0.000006   -0.00    119.99   
   354. A(C  15,C  16,H  22)          120.01 -0.000004    0.00    120.01   
   355. A(C   3,C  17,C   4)           19.13  0.000004    0.00     19.13   
   356. A(C   2,C  17,C   3)           19.40  0.000000    0.00     19.40   
   357. A(C   3,C  17,C   5)           34.29 -0.000000    0.00     34.29   
   358. A(C   1,C  17,C   3)           34.87  0.000003   -0.00     34.87   
   359. A(C   1,C  17,C   5)           36.55  0.000003    0.00     36.56   
   360. A(C   0,C  17,C   3)           40.71  0.000003   -0.00     40.71   
   361. A(C   3,C  17,H  23)           99.64  0.000027   -0.03     99.61   
   362. A(C   0,C  17,C   5)           20.63  0.000004    0.00     20.63   
   363. A(C   3,C  17,C  16)           60.13 -0.000004    0.00     60.13   
   364. A(C   3,C  17,C  12)          109.30 -0.000003    0.00    109.31   
   365. A(C   5,C  17,H  23)           69.45  0.000027   -0.04     69.42   
   366. A(C   5,C  17,C  16)           90.01 -0.000005    0.00     90.01   
   367. A(C   2,C  17,C   4)           34.30  0.000003    0.00     34.30   
   368. A(C   5,C  17,C  12)          110.54  0.000000    0.00    110.54   
   369. A(C  12,C  17,C  16)          120.00 -0.000001    0.00    120.00   
   370. A(C   4,C  17,C   5)           19.42 -0.000005    0.00     19.42   
   371. A(C   1,C  17,C   4)           40.74  0.000002    0.00     40.75   
   372. A(C   0,C  17,C   4)           34.90  0.000001    0.00     34.90   
   373. A(C   4,C  17,H  23)           80.51  0.000023   -0.03     80.48   
   374. A(C   4,C  17,C  16)           70.59 -0.000000    0.00     70.59   
   375. A(C   4,C  17,C  12)          119.81 -0.000003    0.01    119.81   
   376. A(C   0,C  17,H  23)           79.25  0.000025   -0.03     79.22   
   377. A(C   0,C  17,C  16)          100.84 -0.000001    0.00    100.84   
   378. A(C   0,C  17,C  12)           89.91 -0.000004    0.00     89.91   
   379. A(C  16,C  17,H  23)          120.00  0.000005   -0.00    119.99   
   380. A(C  12,C  17,H  23)          120.01 -0.000004    0.00    120.01   
   381. A(C   2,C  17,C   5)           41.24  0.000002    0.00     41.25   
   382. A(C   0,C  17,C   1)           21.68  0.000001   -0.00     21.68   
   383. A(C   1,C  17,C   2)           20.60  0.000004   -0.00     20.59   
   384. A(C   1,C  17,H  23)          100.93  0.000026   -0.03    100.90   
   385. A(C   0,C  17,C   2)           36.52  0.000004   -0.00     36.51   
   386. A(C   2,C  17,H  23)          110.70  0.000028   -0.03    110.66   
   387. A(C   1,C  17,C  16)           90.00 -0.000001    0.00     90.00   
   388. A(C   2,C  17,C  16)           69.40 -0.000005    0.00     69.41   
   389. A(C   2,C  17,C  12)           89.90 -0.000003    0.00     89.90   
   390. A(C   1,C  17,C  12)           79.06 -0.000006    0.00     79.07   
   391. D(C   2,C   1,C   0,C  12)    102.49 -0.000001   -0.00    102.49   
   392. D(C  12,C   1,C   0,C   5)   -102.47 -0.000006    0.02   -102.45   
   393. D(C  12,C   1,C   0,C  17)    -18.89 -0.000000    0.00    -18.89   
   394. D(H   7,C   1,C   0,C  12)    -77.50 -0.000033    0.04    -77.46   
   395. D(C   2,C   1,C   0,C   5)      0.02 -0.000008    0.02      0.04   
   396. D(C  12,C   1,C   0,C  13)      0.01 -0.000003    0.00      0.01   
   397. D(C  17,C   1,C   0,H   6)     96.41  0.000024   -0.02     96.39   
   398. D(H   7,C   1,C   0,C  16)   -114.02 -0.000036    0.05   -113.97   
   399. D(H   7,C   1,C   0,C  17)    -96.39 -0.000033    0.04    -96.35   
   400. D(H   7,C   1,C   0,H   6)      0.02 -0.000009    0.02      0.04   
   401. D(C  12,C   1,C   0,C  16)    -36.52 -0.000003    0.00    -36.51   
   402. D(C   2,C   1,C   0,C  16)     65.97 -0.000005    0.00     65.97   
   403. D(H   7,C   1,C   0,C  13)    -77.49 -0.000036    0.05    -77.44   
   404. D(C  17,C   1,C   0,C  12)     18.89  0.000000   -0.00     18.89   
   405. D(C  17,C   1,C   0,C   5)    -83.58 -0.000006    0.02    -83.56   
   406. D(H   7,C   1,C   0,C   5)   -179.97 -0.000039    0.06   -179.91   
   407. D(C  12,C   1,C   0,H   6)     77.52  0.000024   -0.02     77.50   
   408. D(C   2,C   1,C   0,C  17)     83.59 -0.000002    0.00     83.59   
   409. D(C   2,C   1,C   0,C  13)    102.50 -0.000005    0.00    102.50   
   410. D(C   2,C   1,C   0,H   6)   -179.99  0.000022   -0.02   -180.02   
   411. D(C  17,C   1,C   0,C  16)    -17.62 -0.000003    0.00    -17.62   
   412. D(C   3,C   2,C   1,C  13)    113.90 -0.000002    0.00    113.90   
   413. D(C  15,C   2,C   1,C  13)     17.66  0.000002    0.00     17.67   
   414. D(C  15,C   2,C   1,C  16)    -18.89 -0.000001    0.00    -18.89   
   415. D(H   8,C   2,C   1,C  12)    -83.76 -0.000032    0.04    -83.72   
   416. D(C  15,C   2,C   1,C  12)      0.00  0.000000   -0.00     -0.00   
   417. D(H   8,C   2,C   1,C   0)   -179.99 -0.000028    0.04   -179.95   
   418. D(H   8,C   2,C   1,C  16)   -102.65 -0.000033    0.04   -102.61   
   419. D(H   8,C   2,C   1,H   7)     -0.01  0.000003   -0.01     -0.01   
   420. D(C   3,C   2,C   1,C   0)      0.00  0.000000   -0.00      0.00   
   421. D(H   8,C   2,C   1,C  15)    -83.76 -0.000032    0.04    -83.72   
   422. D(H   8,C   2,C   1,C  17)   -102.65 -0.000033    0.04   -102.61   
   423. D(C   3,C   2,C   1,H   7)    179.99  0.000032   -0.04    179.95   
   424. D(H   8,C   2,C   1,C  14)    -66.10 -0.000030    0.04    -66.05   
   425. D(C   3,C   2,C   1,C  14)    113.90 -0.000002    0.00    113.91   
   426. D(C  16,C   2,C   1,C   0)    -77.34  0.000005   -0.00    -77.35   
   427. D(C   3,C   2,C   1,C  16)     77.35 -0.000005    0.00     77.35   
   428. D(C  15,C   2,C   1,C   0)    -96.23  0.000004   -0.00    -96.24   
   429. D(C   3,C   2,C   1,C  15)     96.24 -0.000004    0.00     96.24   
   430. D(C   3,C   2,C   1,C  17)     77.35 -0.000005    0.00     77.35   
   431. D(C  15,C   2,C   1,C  14)     17.66  0.000002    0.00     17.67   
   432. D(C  15,C   2,C   1,C  17)    -18.89 -0.000001    0.00    -18.89   
   433. D(H   8,C   2,C   1,C  13)    -66.10 -0.000030    0.04    -66.05   
   434. D(C   3,C   2,C   1,C  12)     96.24 -0.000004    0.00     96.24   
   435. D(C  15,C   2,C   1,H   7)     83.75  0.000036   -0.05     83.71   
   436. D(C   4,C   3,C   2,C  17)     65.94  0.000000   -0.01     65.93   
   437. D(H   9,C   3,C   2,C  16)    -96.43 -0.000019    0.02    -96.41   
   438. D(H   9,C   3,C   2,C  13)    -96.43 -0.000019    0.02    -96.41   
   439. D(C  16,C   3,C   2,H   8)     96.40  0.000032   -0.04     96.36   
   440. D(H   9,C   3,C   2,C  14)    -77.53 -0.000022    0.02    -77.50   
   441. D(H   9,C   3,C   2,C  17)   -114.05 -0.000022    0.02   -114.03   
   442. D(C   4,C   3,C   2,H   8)    179.97  0.000035   -0.05    179.91   
   443. D(H   9,C   3,C   2,H   8)     -0.03  0.000012   -0.02     -0.05   
   444. D(C   4,C   3,C   2,C  13)     83.57  0.000003   -0.01     83.56   
   445. D(C   4,C   3,C   2,C   1)     -0.03  0.000006   -0.01     -0.04   
   446. D(C   4,C   3,C   2,C  12)     65.94 -0.000000   -0.01     65.93   
   447. D(C  16,C   3,C   2,C   1)    -83.60  0.000003   -0.00    -83.60   
   448. D(C   4,C   3,C   2,C  14)    102.47  0.000000   -0.01    102.46   
   449. D(C   4,C   3,C   2,C  16)     83.57  0.000003   -0.01     83.56   
   450. D(H   9,C   3,C   2,C   1)    179.97 -0.000016    0.02    179.99   
   451. D(H   9,C   3,C   2,C  12)   -114.05 -0.000023    0.02   -114.03   
   452. D(C   4,C   3,C   2,C  15)    102.46  0.000003   -0.01    102.45   
   453. D(C  16,C   3,C   2,C  17)    -17.62 -0.000003    0.00    -17.62   
   454. D(H   9,C   3,C   2,C  15)    -77.54 -0.000019    0.02    -77.52   
   455. D(C  16,C   3,C   2,C  15)     18.89  0.000000   -0.00     18.89   
   456. D(C  16,C   3,C   2,C  14)     18.90 -0.000003    0.00     18.90   
   457. D(H  10,C   4,C   3,C  15)   -102.58 -0.000002   -0.00   -102.59   
   458. D(H  10,C   4,C   3,C  17)   -119.15  0.000001   -0.00   -119.15   
   459. D(H  10,C   4,C   3,C  14)   -119.13 -0.000006    0.00   -119.13   
   460. D(C  16,C   4,C   3,H   9)    102.50  0.000018   -0.02    102.47   
   461. D(H  10,C   4,C   3,H   9)     -0.10  0.000020   -0.03     -0.13   
   462. D(H  10,C   4,C   3,C  16)   -102.60  0.000002   -0.00   -102.60   
   463. D(C   5,C   4,C   3,C   2)      0.04 -0.000005    0.01      0.05   
   464. D(C   5,C   4,C   3,C  15)     77.54 -0.000005    0.01     77.55   
   465. D(C   5,C   4,C   3,C  16)     77.53 -0.000001    0.01     77.54   
   466. D(C   5,C   4,C   3,C  17)     60.98 -0.000003    0.01     60.99   
   467. D(C  16,C   4,C   3,C  17)    -16.55 -0.000001   -0.00    -16.55   
   468. D(C   5,C   4,C   3,H   9)   -179.97  0.000017   -0.02   -179.99   
   469. D(C  16,C   4,C   3,C   2)    -77.50 -0.000004    0.01    -77.49   
   470. D(C   5,C   4,C   3,C  14)     61.00 -0.000009    0.01     61.01   
   471. D(C  16,C   4,C   3,C  15)      0.01 -0.000004    0.00      0.01   
   472. D(H  10,C   4,C   3,C   2)    179.91 -0.000002    0.00    179.91   
   473. D(H  11,C   5,C   4,C  15)   -127.94 -0.000002   -0.00   -127.94   
   474. D(C  17,C   5,C   4,C  16)     -0.00 -0.000000    0.00     -0.00   
   475. D(H  11,C   5,C   0,C  17)    102.59 -0.000003    0.01    102.60   
   476. D(C  17,C   5,C   4,H  10)    114.00  0.000001    0.00    114.00   
   477. D(C  17,C   5,C   4,C  15)    -13.95 -0.000001    0.00    -13.95   
   478. D(H  11,C   5,C   4,H  10)      0.01 -0.000001    0.00      0.01   
   479. D(C   4,C   5,C   0,C   1)     -0.02  0.000009   -0.02     -0.03   
   480. D(C  17,C   5,C   0,H   6)   -102.48 -0.000024    0.03   -102.46   
   481. D(C   4,C   5,C   0,C  13)    -60.98  0.000011   -0.01    -61.00   
   482. D(C   4,C   5,C   0,C  16)    -60.97  0.000004   -0.01    -60.97   
   483. D(H  11,C   5,C   0,C  16)    119.14 -0.000001    0.01    119.15   
   484. D(C  17,C   5,C   0,C  16)     16.55  0.000002   -0.00     16.55   
   485. D(H  11,C   5,C   0,C  12)    102.58  0.000001    0.00    102.58   
   486. D(C  17,C   5,C   4,C   3)    -66.13  0.000004   -0.01    -66.14   
   487. D(C   0,C   5,C   4,H  10)   -179.88 -0.000005    0.01   -179.87   
   488. D(C   0,C   5,C   4,C  15)     52.17 -0.000007    0.01     52.19   
   489. D(C   0,C   5,C   4,C  17)     66.12 -0.000006    0.01     66.13   
   490. D(H  11,C   5,C   4,C   3)    179.88  0.000003   -0.01    179.87   
   491. D(H  11,C   5,C   4,C  17)   -113.99 -0.000001   -0.00   -113.99   
   492. D(C   0,C   5,C   4,C   3)     -0.01 -0.000002    0.00     -0.01   
   493. D(C  17,C   5,C   0,C   1)     77.50  0.000006   -0.01     77.49   
   494. D(C  17,C   5,C   0,C  12)     -0.01  0.000004   -0.00     -0.01   
   495. D(C   4,C   5,C   0,C  12)    -77.53  0.000006   -0.01    -77.54   
   496. D(H  11,C   5,C   0,C   1)   -179.91  0.000004   -0.00   -179.91   
   497. D(H  11,C   5,C   0,C  13)    119.12  0.000006   -0.00    119.12   
   498. D(C   0,C   5,C   4,C  16)     66.12 -0.000006    0.01     66.13   
   499. D(C   4,C   5,C   0,H   6)    180.00 -0.000021    0.02    180.02   
   500. D(H  11,C   5,C   4,C  16)   -113.99 -0.000001   -0.00   -113.99   
   501. D(H  11,C   5,C   0,H   6)      0.11 -0.000026    0.04      0.14   
   502. D(C   4,C   5,C   0,C  17)    -77.52  0.000002   -0.01    -77.52   
   503. D(H  18,C  12,C   0,C  17)   -122.26  0.000005   -0.00   -122.26   
   504. D(C  17,C  12,C   0,C  13)   -115.49  0.000004   -0.01   -115.50   
   505. D(H  18,C  12,C   0,C   5)   -122.23 -0.000006    0.01   -122.22   
   506. D(C  13,C  12,C   0,C   1)      0.03 -0.000009    0.01      0.04   
   507. D(C  13,C  12,C   0,C   5)    115.52 -0.000015    0.02    115.54   
   508. D(C  17,C  12,C   0,C   1)   -115.47 -0.000005    0.00   -115.47   
   509. D(C  13,C  12,C   0,C  17)    115.49 -0.000004    0.01    115.50   
   510. D(H  18,C  12,C   0,C   1)    122.28  0.000000   -0.00    122.27   
   511. D(C  17,C  12,C   0,H   6)    122.28  0.000001   -0.00    122.27   
   512. D(C  13,C  12,C   0,H   6)   -122.23 -0.000003    0.01   -122.22   
   513. D(H  18,C  12,C   0,H   6)      0.02  0.000006   -0.01      0.01   
   514. D(C  13,C  12,C   0,C  16)     85.60 -0.000007    0.01     85.61   
   515. D(C  17,C  12,C   0,C  16)    -29.89 -0.000003    0.00    -29.89   
   516. D(H  18,C  12,C   2,C  14)    147.42 -0.000007   -0.00    147.42   
   517. D(C  13,C  12,C   2,C  15)     60.87 -0.000005    0.01     60.88   
   518. D(C  17,C  12,C   0,C   5)      0.03 -0.000011    0.01      0.04   
   519. D(C  17,C  12,C   5,H  11)     71.29 -0.000003    0.00     71.29   
   520. D(C  13,C  12,C   5,C   4)     50.02 -0.000009    0.01     50.03   
   521. D(C   1,C  12,C   5,C   4)     83.33  0.000006   -0.00     83.33   
   522. D(H  18,C  12,C   5,C  16)   -153.99  0.000007   -0.01   -154.00   
   523. D(C  17,C  12,C   1,C  14)    -91.21 -0.000004   -0.00    -91.22   
   524. D(H  18,C  12,C   1,C   0)    -59.41 -0.000006    0.00    -59.41   
   525. D(H  18,C  12,C   5,C   4)   -179.99  0.000007   -0.01   -179.99   
   526. D(C   1,C  12,C   5,C   0)    -37.85 -0.000002    0.01    -37.84   
   527. D(C  17,C  12,C   5,C   4)    -58.78 -0.000004    0.00    -58.78   
   528. D(H  18,C  12,C   1,C  13)    120.56  0.000003   -0.01    120.56   
   529. D(H  18,C  12,C   1,C  16)   -149.38 -0.000004    0.00   -149.37   
   530. D(C  17,C  12,C   5,C   0)   -179.96 -0.000012    0.01   -179.95   
   531. D(C  13,C  12,C   5,C  17)    108.81 -0.000004    0.01    108.81   
   532. D(C  17,C  12,C   2,C  16)    -31.33 -0.000002    0.00    -31.33   
   533. D(H  18,C  12,C   1,C  14)    150.00 -0.000006   -0.00    150.00   
   534. D(C  13,C  12,C   2,C   3)    126.69 -0.000003    0.01    126.70   
   535. D(C  13,C  12,C   5,C   0)    -71.16 -0.000017    0.02    -71.14   
   536. D(H  18,C  12,C   2,C  17)   -114.18 -0.000003    0.00   -114.17   
   537. D(H  18,C  12,C   2,C  16)   -145.50 -0.000004    0.00   -145.50   
   538. D(H  18,C  12,C   2,C  15)   -179.99 -0.000003    0.00   -179.99   
   539. D(H  18,C  12,C   2,C   3)   -114.17 -0.000001    0.00   -114.17   
   540. D(C  17,C  12,C   2,C   1)    114.19 -0.000000   -0.00    114.19   
   541. D(H  18,C  12,C   2,H   8)    119.18 -0.000013    0.02    119.19   
   542. D(C  13,C  12,C   1,C  16)     90.06 -0.000007    0.01     90.07   
   543. D(C  17,C  12,C   2,C  15)    -65.81 -0.000000   -0.00    -65.81   
   544. D(C  13,C  12,C   1,C  14)     29.43 -0.000008    0.01     29.44   
   545. D(C  17,C  12,C   2,C   3)      0.00  0.000001   -0.00      0.00   
   546. D(C  17,C  12,C   1,C   0)     59.38 -0.000004    0.00     59.38   
   547. D(C  13,C  12,C   5,C  16)     76.01 -0.000009    0.01     76.03   
   548. D(C  13,C  12,C   2,C   1)   -119.13 -0.000005    0.01   -119.12   
   549. D(H  18,C  12,C   1,C   2)   -179.99 -0.000003    0.00   -179.99   
   550. D(C  17,C  12,C   2,C  14)    -98.40 -0.000004   -0.00    -98.40   
   551. D(C  17,C  12,C   1,C  15)    -61.20 -0.000001   -0.00    -61.20   
   552. D(H  18,C  12,C   5,C  17)   -121.20  0.000012   -0.01   -121.21   
   553. D(C  17,C  12,C   1,C  16)    -30.58 -0.000003    0.00    -30.58   
   554. D(C  17,C  12,C   2,C  13)   -126.68  0.000004   -0.01   -126.69   
   555. D(H  18,C  12,C   2,C   1)      0.01 -0.000003    0.00      0.01   
   556. D(C  13,C  12,C   2,C  17)    126.68 -0.000004    0.01    126.69   
   557. D(C   1,C  12,C   0,H   6)   -122.25  0.000006   -0.00   -122.26   
   558. D(C  13,C  12,C   1,C   0)   -179.98 -0.000008    0.01   -179.97   
   559. D(C  13,C  12,C   2,H   8)      0.04 -0.000015    0.03      0.06   
   560. D(C  13,C  12,C   1,H   7)    -59.36 -0.000014    0.02    -59.34   
   561. D(C  13,C  12,C   1,C  15)     59.45 -0.000005    0.01     59.46   
   562. D(C  17,C  12,C   1,H   7)    180.00 -0.000010    0.01    180.00   
   563. D(H  18,C  12,C   0,C  16)   -152.15  0.000002   -0.00   -152.15   
   564. D(C  13,C  12,C   5,H  11)   -179.91 -0.000007    0.01   -179.89   
   565. D(C  13,C  12,C   2,C  14)     28.28 -0.000009    0.01     28.29   
   566. D(C  13,C  12,C   1,C  17)    120.65 -0.000005    0.01    120.66   
   567. D(C  13,C  12,C   2,C  16)     95.36 -0.000006    0.01     95.37   
   568. D(H  18,C  12,C   1,C  17)   -118.79 -0.000002    0.00   -118.79   
   569. D(H  18,C  12,C   1,H   7)     61.20 -0.000011    0.01     61.22   
   570. D(C  17,C  12,C   5,C  16)    -32.79 -0.000005    0.00    -32.79   
   571. D(H  18,C  12,C   5,H  11)    -49.92  0.000009   -0.01    -49.92   
   572. D(H  18,C  12,C   5,C   0)     58.83 -0.000001    0.00     58.84   
   573. D(C  13,C  12,C   1,C   2)     59.45 -0.000005    0.01     59.46   
   574. D(C  17,C  12,C   1,C   2)    -61.20 -0.000001    0.00    -61.20   
   575. D(C  17,C  12,C   2,H   8)   -126.65 -0.000011    0.01   -126.63   
   576. D(C  17,C  12,C   1,C  13)   -120.65  0.000005   -0.01   -120.66   
   577. D(C   1,C  12,C   0,C   5)    115.50 -0.000006    0.01    115.51   
   578. D(H  18,C  12,C   0,C  13)    122.25  0.000009   -0.01    122.24   
   579. D(C   1,C  13,C  12,C  17)     77.50  0.000006   -0.01     77.49   
   580. D(H  19,C  13,C  12,C   0)    102.58  0.000000    0.00    102.58   
   581. D(C  14,C  13,C   1,H   7)   -122.27 -0.000000   -0.01   -122.28   
   582. D(C  14,C  13,C  12,C   5)    -60.98  0.000009   -0.01    -61.00   
   583. D(H  19,C  13,C   1,C   0)   -115.43 -0.000003    0.00   -115.43   
   584. D(C  14,C  13,C  12,H  18)    179.99 -0.000020    0.02    180.01   
   585. D(H  19,C  13,C   1,C  17)   -147.71  0.000005   -0.00   -147.71   
   586. D(H  19,C  13,C   2,C  15)    145.54  0.000002    0.00    145.55   
   587. D(H  19,C  13,C   2,H   8)     60.76 -0.000010    0.02     60.78   
   588. D(C  14,C  13,C   2,C  17)     98.36  0.000006   -0.00     98.36   
   589. D(C  12,C  13,C   2,C  15)    -95.18 -0.000003    0.01    -95.17   
   590. D(C  14,C  13,C   2,C  16)     65.86  0.000003    0.00     65.86   
   591. D(C  14,C  13,C   2,C   3)     65.86  0.000002   -0.00     65.86   
   592. D(C  12,C  13,C   2,C  17)    -28.22 -0.000000    0.01    -28.21   
   593. D(C  14,C  13,C   2,C  15)     31.39  0.000003    0.00     31.39   
   594. D(C  14,C  13,C   2,H   8)    -53.39 -0.000009    0.02    -53.37   
   595. D(C  14,C  13,C   2,C  12)    126.58  0.000006   -0.01    126.57   
   596. D(C  12,C  13,C   2,H   8)   -179.96 -0.000015    0.03   -179.94   
   597. D(C  12,C  13,C   2,C   3)    -60.72 -0.000004    0.01    -60.71   
   598. D(C  12,C  13,C   2,C   1)     53.43 -0.000007    0.01     53.44   
   599. D(C  14,C  13,C  12,C  17)     -0.02  0.000008   -0.02     -0.04   
   600. D(H  19,C  13,C   1,H   7)      0.03  0.000000   -0.00      0.03   
   601. D(H  19,C  13,C   1,C   2)    122.30  0.000000    0.00    122.30   
   602. D(C  14,C  13,C   1,C  15)     27.84  0.000002    0.00     27.84   
   603. D(C  14,C  13,C   1,C  16)     57.74  0.000001    0.00     57.74   
   604. D(C  14,C  13,C   1,C  17)     89.99  0.000004   -0.00     89.99   
   605. D(H  19,C  13,C  12,C  17)   -179.91  0.000004   -0.00   -179.91   
   606. D(C  14,C  13,C  12,C   0)    -77.53  0.000005   -0.01    -77.54   
   607. D(C  14,C  13,C   1,C  12)    122.24  0.000005   -0.01    122.23   
   608. D(C  14,C  13,C  12,C   2)    -60.97  0.000004   -0.01    -60.98   
   609. D(H  19,C  13,C  12,C   2)    119.14 -0.000000    0.01    119.15   
   610. D(C  14,C  13,C  12,C   1)    -77.52  0.000001   -0.01    -77.53   
   611. D(H  19,C  13,C   1,C  12)   -115.46  0.000005   -0.01   -115.46   
   612. D(H  19,C  13,C   2,C  16)   -179.99  0.000001    0.00   -179.99   
   613. D(H  19,C  13,C  12,C   1)    102.59 -0.000003    0.01    102.60   
   614. D(C  14,C  13,C   1,C   2)      0.00 -0.000000    0.00      0.00   
   615. D(C  14,C  13,C   1,C   0)    122.27 -0.000004    0.00    122.27   
   616. D(H  19,C  13,C  12,C   5)    119.13  0.000005   -0.00    119.13   
   617. D(C  12,C  13,C   2,C  16)    -60.72 -0.000004    0.01    -60.71   
   618. D(C  12,C  13,C   2,C  14)   -126.58 -0.000006    0.01   -126.57   
   619. D(C  12,C  13,C   1,C  15)    -94.40 -0.000003    0.01    -94.39   
   620. D(C  14,C  13,C   2,C   1)   -180.00 -0.000000    0.00   -180.00   
   621. D(C  12,C  13,C   1,C  14)   -122.24 -0.000005    0.01   -122.23   
   622. D(H  19,C  13,C  12,H  18)      0.11 -0.000024    0.03      0.14   
   623. D(C  12,C  13,C   1,C  17)    -32.25 -0.000001    0.01    -32.25   
   624. D(H  19,C  13,C   0,C  12)   -108.75  0.000007   -0.01   -108.75   
   625. D(H  19,C  13,C   0,C   1)     71.28 -0.000004    0.00     71.29   
   626. D(H  19,C  13,C   2,C   1)    -65.85 -0.000001    0.00    -65.84   
   627. D(C  14,C  13,C   0,H   6)   -179.99  0.000007   -0.01   -180.00   
   628. D(C  14,C  13,C   0,C   1)    -58.79 -0.000005    0.00    -58.79   
   629. D(C  12,C  13,C   0,C  16)    -71.19 -0.000006    0.01    -71.17   
   630. D(C  12,C  13,C   0,C  17)    -37.85 -0.000001    0.01    -37.85   
   631. D(H  19,C  13,C   2,C   3)   -179.99  0.000001    0.00   -179.99   
   632. D(C  12,C  13,C   0,H   6)     58.83  0.000002    0.00     58.83   
   633. D(C  12,C  13,C   0,C   5)    -71.16 -0.000017    0.02    -71.14   
   634. D(C  12,C  13,C   0,C   1)   -179.97 -0.000010    0.01   -179.96   
   635. D(C  14,C  13,C   0,C  17)     83.33  0.000004   -0.00     83.32   
   636. D(C  14,C  13,C   0,C   5)     50.02 -0.000012    0.01     50.04   
   637. D(H  19,C  13,C   0,H   6)    -49.92  0.000008   -0.01    -49.92   
   638. D(C  14,C  13,C   0,C  16)     50.00 -0.000000    0.00     50.00   
   639. D(C  12,C  13,C   1,C  16)    -64.50 -0.000004    0.01    -64.49   
   640. D(H  19,C  13,C   0,C  17)   -146.60  0.000005   -0.00   -146.60   
   641. D(C  12,C  13,C   1,C   0)      0.03 -0.000009    0.01      0.04   
   642. D(C  12,C  13,C   1,C   2)   -122.24 -0.000005    0.01   -122.23   
   643. D(C  12,C  13,C   1,H   7)    115.48 -0.000005    0.00    115.49   
   644. D(C  14,C  13,C   0,C  12)    121.18  0.000006   -0.01    121.17   
   645. D(C   1,C  13,C  12,C   2)     16.55  0.000003    0.00     16.55   
   646. D(C   1,C  13,C  12,C   0)     -0.01  0.000003   -0.00     -0.01   
   647. D(C   1,C  13,C  12,H  18)   -102.49 -0.000021    0.03   -102.46   
   648. D(H  19,C  13,C   0,C   5)   -179.90 -0.000011    0.01   -179.89   
   649. D(H  20,C  14,C   2,C  15)    115.46 -0.000005    0.01    115.46   
   650. D(C  13,C  14,C   3,C   4)    -50.03  0.000010   -0.01    -50.04   
   651. D(C  15,C  14,C   3,C  17)     71.18  0.000005   -0.01     71.17   
   652. D(H  20,C  14,C   3,C  16)    146.60 -0.000005   -0.00    146.60   
   653. D(C  15,C  14,C  13,C   0)    -52.18  0.000005   -0.01    -52.19   
   654. D(C   2,C  14,C  13,C  12)     66.12 -0.000005    0.01     66.13   
   655. D(C   2,C  14,C  13,H  19)   -113.99 -0.000000   -0.00   -113.99   
   656. D(C   2,C  14,C  13,C   0)     13.95  0.000001   -0.00     13.94   
   657. D(H  20,C  14,C  13,C   0)    127.94  0.000002    0.00    127.94   
   658. D(C   2,C  14,C  13,C   1)     -0.00  0.000000   -0.00     -0.00   
   659. D(H  20,C  14,C  13,C   2)    113.99  0.000001    0.00    113.99   
   660. D(H  20,C  14,C  13,C   1)    113.99  0.000001    0.00    113.99   
   661. D(H  20,C  14,C  13,C  12)   -179.89 -0.000004    0.01   -179.88   
   662. D(C  15,C  14,C  13,C   2)    -66.12  0.000004   -0.01    -66.13   
   663. D(C  15,C  14,C  13,H  19)    179.88  0.000004   -0.01    179.87   
   664. D(C  15,C  14,C  13,C  12)     -0.00 -0.000001    0.00     -0.00   
   665. D(H  20,C  14,C   3,C  15)    108.75 -0.000006    0.01    108.76   
   666. D(H  20,C  14,C   3,H   9)     49.91 -0.000007    0.00     49.91   
   667. D(H  20,C  14,C   3,C   4)    179.90  0.000009   -0.01    179.89   
   668. D(H  20,C  14,C   3,C   2)    -71.28  0.000004   -0.00    -71.29   
   669. D(C  15,C  14,C   3,C  16)     37.85  0.000001   -0.01     37.85   
   670. D(C  15,C  14,C   3,H   9)    -58.84 -0.000001   -0.00    -58.84   
   671. D(C  15,C  14,C   3,C   4)     71.15  0.000015   -0.02     71.13   
   672. D(C  13,C  14,C   3,C  17)    -49.99 -0.000000   -0.00    -50.00   
   673. D(C  13,C  14,C   3,C  15)   -121.18 -0.000005    0.01   -121.17   
   674. D(C  13,C  14,C   3,C  16)    -83.33 -0.000004    0.00    -83.32   
   675. D(C  13,C  14,C   3,H   9)    179.98 -0.000006    0.01    179.99   
   676. D(C  13,C  14,C   3,C   2)     58.79  0.000005   -0.00     58.79   
   677. D(H  20,C  14,C   2,C  16)    147.71 -0.000005    0.00    147.71   
   678. D(H  20,C  14,C   2,H   8)     -0.03 -0.000000    0.00     -0.03   
   679. D(H  20,C  14,C   2,C   3)    115.43  0.000003   -0.00    115.43   
   680. D(H  20,C  14,C   2,C   1)   -122.30 -0.000001   -0.00   -122.30   
   681. D(C  15,C  14,C   2,C  12)     94.40  0.000003   -0.01     94.39   
   682. D(C  15,C  14,C   2,C  13)    122.24  0.000005   -0.01    122.23   
   683. D(C  15,C  14,C   2,C  17)     64.50  0.000004   -0.01     64.49   
   684. D(C  15,C  14,C   2,C  16)     32.25  0.000000   -0.01     32.25   
   685. D(C  15,C  14,C   2,H   8)   -115.49  0.000005   -0.00   -115.49   
   686. D(C  15,C  14,C   2,C   3)     -0.03  0.000008   -0.01     -0.04   
   687. D(C  15,C  14,C   2,C   1)    122.24  0.000004   -0.01    122.23   
   688. D(C  13,C  14,C   2,C  12)    -27.84 -0.000002   -0.00    -27.84   
   689. D(C  13,C  14,C   2,C  16)    -89.99 -0.000005    0.00    -89.99   
   690. D(C  13,C  14,C   2,H   8)    122.27 -0.000000    0.00    122.28   
   691. D(C  13,C  14,C   1,C  17)    -65.86 -0.000003   -0.00    -65.86   
   692. D(C  15,C  14,C   3,C   2)    179.97  0.000010   -0.01    179.96   
   693. D(H  20,C  14,C   1,C  12)   -145.54 -0.000002   -0.00   -145.55   
   694. D(C  15,C  14,C   1,C   2)    -53.43  0.000006   -0.01    -53.44   
   695. D(H  20,C  14,C   1,C   0)    179.99 -0.000001   -0.00    179.99   
   696. D(C  15,C  14,C   1,C  16)     28.21 -0.000000   -0.01     28.21   
   697. D(C  15,C  14,C   1,C  17)     60.72  0.000004   -0.01     60.71   
   698. D(C  15,C  14,C   1,C  12)     95.18  0.000003   -0.01     95.17   
   699. D(C  15,C  14,C   1,H   7)    179.96  0.000015   -0.03    179.93   
   700. D(C  15,C  14,C   1,C  13)    126.57  0.000006   -0.01    126.56   
   701. D(H  20,C  14,C   1,C   2)     65.85  0.000001   -0.00     65.85   
   702. D(C  15,C  14,C   1,C   0)     60.72  0.000004   -0.01     60.71   
   703. D(H  20,C  14,C   1,H   7)    -60.77  0.000010   -0.02    -60.79   
   704. D(C  15,C  14,C  13,C   1)    -66.12  0.000004   -0.01    -66.13   
   705. D(C  13,C  14,C   1,C  15)   -126.57 -0.000006    0.01   -126.56   
   706. D(C  13,C  14,C   1,C  16)    -98.36 -0.000007    0.00    -98.36   
   707. D(C  13,C  14,C   2,C   3)   -122.27  0.000003   -0.00   -122.27   
   708. D(H  20,C  14,C  13,H  19)     -0.00  0.000000   -0.00     -0.00   
   709. D(C  13,C  14,C   1,C  12)    -31.39 -0.000003   -0.00    -31.39   
   710. D(C  13,C  14,C   1,H   7)     53.39  0.000009   -0.02     53.37   
   711. D(C  13,C  14,C   1,C   2)   -180.00 -0.000000    0.00   -180.00   
   712. D(C  13,C  14,C   2,C  15)   -122.24 -0.000005    0.01   -122.23   
   713. D(C  13,C  14,C   2,C   1)      0.00 -0.000000    0.00      0.00   
   714. D(C  13,C  14,C   1,C   0)    -65.86 -0.000002   -0.00    -65.86   
   715. D(C  13,C  14,C   2,C  17)    -57.74 -0.000001   -0.00    -57.74   
   716. D(H  20,C  14,C   1,C  17)    179.99 -0.000001   -0.00    179.99   
   717. D(C   3,C  15,C  14,H  20)   -102.58  0.000000   -0.00   -102.58   
   718. D(C   3,C  15,C  14,C  13)     77.53 -0.000003    0.01     77.54   
   719. D(C   2,C  15,C  14,C   3)     -0.01  0.000003   -0.00     -0.01   
   720. D(C   2,C  15,C  14,H  20)   -102.59  0.000003   -0.01   -102.60   
   721. D(C   2,C  15,C  14,C  13)     77.52 -0.000000    0.00     77.53   
   722. D(H  21,C  15,C  14,C   3)    102.48  0.000023   -0.03    102.45   
   723. D(H  21,C  15,C  14,C   2)    102.49  0.000020   -0.03    102.47   
   724. D(H  21,C  15,C  14,H  20)     -0.10  0.000023   -0.03     -0.13   
   725. D(H  21,C  15,C  14,C  13)   -179.98  0.000020   -0.02   -180.00   
   726. D(C  16,C  15,C  14,C   1)    -60.95 -0.000003    0.01    -60.94   
   727. D(C  16,C  15,C  14,C   2)    -77.50 -0.000006    0.01    -77.49   
   728. D(C  16,C  15,C  14,H  20)    179.91 -0.000003    0.00    179.91   
   729. D(C  16,C  15,C  14,C  13)      0.03 -0.000006    0.01      0.04   
   730. D(C   2,C  15,C   4,C   5)    -83.32 -0.000006    0.00    -83.32   
   731. D(C   2,C  15,C   4,C   3)     37.85  0.000001   -0.01     37.84   
   732. D(H  21,C  15,C   4,C  17)    153.99 -0.000007    0.01    154.00   
   733. D(H  21,C  15,C   4,H  10)     49.91 -0.000009    0.01     49.92   
   734. D(H  21,C  15,C   4,C   5)    179.99 -0.000007    0.01    180.00   
   735. D(H  21,C  15,C   4,C   3)    -58.84  0.000001   -0.00    -58.84   
   736. D(C  16,C  15,C   4,H  10)    -71.29  0.000002   -0.00    -71.29   
   737. D(C  16,C  15,C   4,C   5)     58.79  0.000004   -0.00     58.79   
   738. D(C  16,C  15,C   4,C   3)    179.96  0.000012   -0.01    179.95   
   739. D(C  14,C  15,C   4,C  16)   -108.81  0.000004   -0.01   -108.82   
   740. D(C  14,C  15,C   4,H  10)    179.91  0.000006   -0.01    179.89   
   741. D(C  14,C  15,C   4,C   5)    -50.02  0.000008   -0.01    -50.03   
   742. D(C  14,C  15,C   4,C   3)     71.15  0.000016   -0.02     71.13   
   743. D(C   2,C  15,C   3,H   9)    122.25 -0.000005    0.00    122.25   
   744. D(C   2,C  15,C   3,C   4)   -115.50  0.000005   -0.01   -115.51   
   745. D(H  21,C  15,C   3,C  14)   -122.25 -0.000008    0.01   -122.24   
   746. D(H  21,C  15,C   3,C  16)    122.25 -0.000005    0.00    122.26   
   747. D(H  21,C  15,C   3,H   9)     -0.03 -0.000005    0.01     -0.03   
   748. D(H  21,C  15,C   3,C   4)    122.22  0.000005   -0.01    122.22   
   749. D(C  16,C  15,C   3,C  14)    115.50 -0.000003    0.01    115.50   
   750. D(C  16,C  15,C   3,C  17)     29.89  0.000003   -0.00     29.89   
   751. D(C  16,C  15,C   3,H   9)   -122.28  0.000000    0.00   -122.28   
   752. D(C  16,C  15,C   3,C   2)    115.47  0.000005   -0.00    115.47   
   753. D(C  14,C  15,C   3,C  17)    -85.60  0.000006   -0.01    -85.61   
   754. D(C  14,C  15,C   3,C  16)   -115.50  0.000003   -0.01   -115.50   
   755. D(C  14,C  15,C   3,H   9)    122.22  0.000004   -0.01    122.21   
   756. D(C  14,C  15,C   3,C   4)   -115.53  0.000013   -0.02   -115.54   
   757. D(C  14,C  15,C   3,C   2)     -0.03  0.000008   -0.01     -0.04   
   758. D(H  21,C  15,C   2,C  13)   -150.00  0.000006    0.00   -150.00   
   759. D(H  21,C  15,C   2,H   8)    -61.21  0.000011   -0.01    -61.22   
   760. D(C  16,C  15,C   2,C  13)     91.21  0.000004    0.00     91.22   
   761. D(C  16,C  15,C   2,C   3)    -59.37  0.000004   -0.00    -59.38   
   762. D(C  14,C  15,C   2,C  13)    -29.44  0.000008   -0.01    -29.44   
   763. D(C  14,C  15,C   2,C  17)    -90.06  0.000007   -0.01    -90.07   
   764. D(C  16,C  15,C   3,C   4)     -0.03  0.000010   -0.01     -0.04   
   765. D(C  14,C  15,C   2,C   1)    -59.45  0.000005   -0.01    -59.46   
   766. D(H  21,C  15,C   1,C  12)    179.99  0.000003   -0.00    179.99   
   767. D(C  16,C  15,C   1,C  14)    126.69 -0.000003    0.01    126.70   
   768. D(H  21,C  15,C   3,C   2)   -122.28 -0.000000    0.00   -122.28   
   769. D(C  16,C  15,C   1,C  12)     65.82  0.000001   -0.00     65.82   
   770. D(C  16,C  15,C   1,H   7)    126.65  0.000012   -0.02    126.63   
   771. D(C  14,C  15,C   1,C  13)    -28.29  0.000008   -0.01    -28.29   
   772. D(H  21,C  15,C   3,C  17)    152.15 -0.000002    0.00    152.15   
   773. D(C  14,C  15,C   1,C   2)    119.13  0.000005   -0.01    119.12   
   774. D(C  14,C  15,C   1,C   0)   -126.69  0.000003   -0.01   -126.70   
   775. D(C  14,C  15,C   1,C  17)    -95.36  0.000006   -0.01    -95.37   
   776. D(C  16,C  15,C   1,C   0)      0.00 -0.000000   -0.00     -0.00   
   777. D(C  14,C  15,C   1,C  16)   -126.69  0.000003   -0.01   -126.70   
   778. D(C  14,C  15,C   1,C  12)    -60.87  0.000005   -0.01    -60.88   
   779. D(C  16,C  15,C   1,C  17)     31.33  0.000003   -0.00     31.33   
   780. D(C  14,C  15,C   4,C  17)    -76.02  0.000009   -0.01    -76.03   
   781. D(C  16,C  15,C   1,C   2)   -114.18  0.000001    0.00   -114.18   
   782. D(H  21,C  15,C   1,C   2)     -0.01  0.000003   -0.00     -0.01   
   783. D(H  21,C  15,C   1,C   0)    114.17  0.000002   -0.00    114.17   
   784. D(C  16,C  15,C   4,C  17)     32.79  0.000005   -0.00     32.79   
   785. D(H  21,C  15,C   1,H   7)   -119.18  0.000014   -0.02   -119.20   
   786. D(H  21,C  15,C   1,C  13)   -147.43  0.000007    0.00   -147.43   
   787. D(H  21,C  15,C   1,C  16)    114.17  0.000002   -0.00    114.17   
   788. D(H  21,C  15,C   4,C  16)    121.20 -0.000011    0.01    121.21   
   789. D(H  21,C  15,C   1,C  17)    145.50  0.000004   -0.00    145.50   
   790. D(C  16,C  15,C   1,C  13)     98.40  0.000005    0.00     98.41   
   791. D(C  14,C  15,C   1,H   7)     -0.04  0.000015   -0.03     -0.07   
   792. D(C  14,C  15,C   2,C  16)   -120.65  0.000004   -0.01   -120.66   
   793. D(C  14,C  15,C   2,C  12)    -59.45  0.000005   -0.01    -59.46   
   794. D(C  14,C  15,C   2,H   8)     59.36  0.000013   -0.02     59.34   
   795. D(C  16,C  15,C   2,H   8)   -179.99  0.000009   -0.01   -180.00   
   796. D(C  16,C  15,C  14,C   3)    -77.51 -0.000003    0.01    -77.50   
   797. D(C  16,C  15,C   2,C   1)     61.20  0.000001    0.00     61.20   
   798. D(C  16,C  15,C   2,C  14)    120.65 -0.000004    0.01    120.66   
   799. D(C  14,C  15,C   2,C   3)    179.98  0.000008   -0.01    179.97   
   800. D(H  21,C  15,C  14,C   1)    119.04  0.000023   -0.03    119.01   
   801. D(C  16,C  15,C   2,C  12)     61.20  0.000001   -0.00     61.20   
   802. D(H  21,C  15,C   2,C   1)    179.99  0.000003   -0.00    179.99   
   803. D(H  21,C  15,C   2,C   3)     59.41  0.000005   -0.00     59.41   
   804. D(C   2,C  15,C  14,C   1)     16.55  0.000003   -0.00     16.55   
   805. D(H  21,C  15,C   2,C  14)   -120.56 -0.000002    0.01   -120.56   
   806. D(H  21,C  15,C   2,C  17)    149.37  0.000004   -0.00    149.37   
   807. D(H  21,C  15,C   2,C  16)    118.79  0.000001   -0.00    118.79   
   808. D(C  16,C  15,C   2,C  17)     30.59  0.000003   -0.00     30.58   
   809. D(C  15,C  16,C   4,C   5)   -122.27  0.000003   -0.00   -122.27   
   810. D(C  15,C  16,C   4,C   3)     -0.03  0.000010   -0.01     -0.04   
   811. D(C   2,C  16,C   3,C  14)     29.99 -0.000008    0.00     29.99   
   812. D(C   2,C  16,C   3,C  15)     59.38 -0.000004    0.00     59.38   
   813. D(C   2,C  16,C   3,H   9)    118.79  0.000001   -0.00    118.78   
   814. D(C   2,C  16,C   3,C   4)   -120.65  0.000005   -0.01   -120.66   
   815. D(H  22,C  16,C   3,C  17)    118.80  0.000009   -0.01    118.79   
   816. D(H  22,C  16,C   3,C  15)   -120.62  0.000007   -0.01   -120.63   
   817. D(H  22,C  16,C   3,H   9)    -61.21  0.000012   -0.01    -61.22   
   818. D(H  22,C  16,C   3,C   4)     59.35  0.000016   -0.02     59.33   
   819. D(H  22,C  16,C   3,C   2)   -179.99  0.000011   -0.01   -180.00   
   820. D(C  17,C  16,C   3,C  14)     91.19 -0.000006    0.00     91.19   
   821. D(C  17,C  16,C   3,C  15)    120.58 -0.000002    0.00    120.58   
   822. D(C  17,C  16,C   3,C   4)    -59.45  0.000007   -0.01    -59.46   
   823. D(C  17,C  16,C   3,C   2)     61.20  0.000002   -0.00     61.20   
   824. D(C  15,C  16,C   3,C  14)    -29.39 -0.000003    0.00    -29.39   
   825. D(C  15,C  16,C   3,H   9)     59.41  0.000005   -0.00     59.41   
   826. D(C  15,C  16,C   3,C   4)    179.97  0.000009   -0.01    179.96   
   827. D(C  15,C  16,C   3,C   2)    -59.38  0.000004   -0.00    -59.38   
   828. D(C   3,C  16,C   2,C   1)    120.61 -0.000001    0.00    120.61   
   829. D(H  22,C  16,C   2,C  12)    150.02  0.000007   -0.01    150.01   
   830. D(H  22,C  16,C   2,C  13)   -180.00  0.000011   -0.01   -180.00   
   831. D(H  22,C  16,C   2,C  17)    120.61  0.000009   -0.01    120.60   
   832. D(H  22,C  16,C   2,C  14)   -149.38  0.000003   -0.01   -149.38   
   833. D(H  22,C  16,C   2,C  15)   -118.78  0.000008   -0.01   -118.79   
   834. D(H  22,C  16,C   2,H   8)   -118.77  0.000017   -0.02   -118.79   
   835. D(H  22,C  16,C   2,C   1)    120.61  0.000009   -0.01    120.60   
   836. D(C  17,C  16,C   2,C  12)     29.40 -0.000002    0.00     29.41   
   837. D(C  17,C  16,C   2,C  13)     59.39  0.000002    0.00     59.39   
   838. D(C  17,C  16,C   2,C  15)    120.61 -0.000001    0.00    120.61   
   839. D(C  17,C  16,C   2,H   8)    120.61  0.000008   -0.01    120.61   
   840. D(C  17,C  16,C   2,C   3)   -120.61  0.000001   -0.00   -120.61   
   841. D(C  15,C  16,C   2,C  12)    -91.20 -0.000001    0.00    -91.20   
   842. D(C  15,C  16,C   2,C  13)    -61.22  0.000003    0.00    -61.22   
   843. D(C  15,C  16,C   2,C  17)   -120.61  0.000001   -0.00   -120.61   
   844. D(C  15,C  16,C   2,C  14)    -30.60 -0.000005    0.00    -30.59   
   845. D(C  15,C  16,C   2,H   8)      0.01  0.000009   -0.01     -0.00   
   846. D(C  15,C  16,C   2,C   3)    118.78  0.000003   -0.00    118.78   
   847. D(C  15,C  16,C   2,C   1)   -120.61  0.000002   -0.00   -120.61   
   848. D(C   3,C  16,C   1,C   2)    -32.30  0.000002   -0.00    -32.30   
   849. D(C   3,C  16,C   1,C   0)     90.02  0.000002   -0.00     90.02   
   850. D(H  22,C  16,C   1,C  15)   -122.27 -0.000002    0.00   -122.27   
   851. D(H  22,C  16,C   1,C  14)   -150.06 -0.000006    0.01   -150.05   
   852. D(H  22,C  16,C   1,C  13)   -179.99  0.000001    0.01   -179.98   
   853. D(H  22,C  16,C   1,C  17)    115.40 -0.000002    0.01    115.41   
   854. D(H  22,C  16,C   1,C  12)    147.70 -0.000003    0.01    147.71   
   855. D(H  22,C  16,C   1,H   7)    180.00  0.000001   -0.00    180.00   
   856. D(H  22,C  16,C   1,C   2)    -64.60 -0.000002    0.01    -64.59   
   857. D(H  22,C  16,C   1,C   0)     57.73 -0.000002    0.00     57.73   
   858. D(C  17,C  16,C   1,C  15)    122.32  0.000000   -0.00    122.32   
   859. D(C  17,C  16,C   1,C  14)     94.53 -0.000004    0.00     94.54   
   860. D(C  17,C  16,C   2,C   1)     -0.00  0.000000    0.00     -0.00   
   861. D(C  17,C  16,C   1,C  13)     64.60  0.000004    0.00     64.61   
   862. D(C  17,C  16,C   1,C  12)     32.30 -0.000001    0.00     32.30   
   863. D(C  17,C  16,C   1,H   7)     64.59  0.000003   -0.01     64.59   
   864. D(C  17,C  16,C   2,C  14)     90.01 -0.000006    0.00     90.02   
   865. D(C  17,C  16,C   1,C   2)    180.00  0.000000    0.00    180.00   
   866. D(C  17,C  16,C   1,C   0)    -57.68 -0.000000   -0.00    -57.68   
   867. D(C  15,C  16,C   1,C  14)    -27.79 -0.000004    0.00    -27.79   
   868. D(H  22,C  16,C   2,C   3)      0.01  0.000011   -0.01     -0.00   
   869. D(C  15,C  16,C   1,C  13)    -57.72  0.000003    0.00    -57.72   
   870. D(C  15,C  16,C   1,C  17)   -122.32 -0.000000    0.00   -122.32   
   871. D(C  15,C  16,C   1,C  12)    -90.03 -0.000001    0.00    -90.02   
   872. D(C  15,C  16,C   1,H   7)    -57.73  0.000003   -0.01    -57.74   
   873. D(C  15,C  16,C   1,C   2)     57.68 -0.000000    0.00     57.68   
   874. D(C  15,C  16,C   1,C   0)   -180.00 -0.000000   -0.00   -180.00   
   875. D(C   3,C  16,C   0,C  17)   -180.00  0.000000   -0.00   -180.00   
   876. D(C   3,C  16,C   2,H   8)   -118.78  0.000007   -0.01   -118.79   
   877. D(C   3,C  16,C   0,H   6)   -179.99 -0.000003    0.00   -179.99   
   878. D(C   3,C  16,C   0,C   5)     60.87 -0.000007    0.01     60.88   
   879. D(C   3,C  16,C   0,C   1)    -65.82 -0.000001   -0.00    -65.82   
   880. D(C  15,C  16,C   3,C  17)   -120.58  0.000002   -0.00   -120.58   
   881. D(H  22,C  16,C   0,C  13)   -179.99 -0.000007    0.02   -179.97   
   882. D(H  22,C  16,C   0,C  12)    151.75 -0.000010    0.02    151.77   
   883. D(H  22,C  16,C   0,C  17)    119.17 -0.000010    0.02    119.18   
   884. D(C  17,C  16,C   3,H   9)    179.99  0.000003   -0.00    179.99   
   885. D(H  22,C  16,C   0,H   6)    119.18 -0.000013    0.02    119.20   
   886. D(H  22,C  16,C   0,C   5)      0.04 -0.000018    0.03      0.07   
   887. D(H  22,C  16,C   0,C   1)   -126.65 -0.000011    0.02   -126.63   
   888. D(C  17,C  16,C   0,C  13)     60.85  0.000003    0.00     60.85   
   889. D(C  17,C  16,C   0,C  12)     32.58 -0.000000    0.00     32.58   
   890. D(C  17,C  16,C   0,H   6)      0.01 -0.000003    0.00      0.01   
   891. D(C  17,C  16,C   0,C   5)   -119.13 -0.000007    0.01   -119.12   
   892. D(H  22,C  16,C   3,C  14)   -150.01  0.000003   -0.01   -150.02   
   893. D(C  17,C  16,C   0,C   1)    114.18 -0.000001   -0.00    114.18   
   894. D(C  15,C  16,C   0,C  13)    -53.34  0.000004    0.00    -53.33   
   895. D(C  15,C  16,C   0,C  12)    -81.60  0.000001    0.00    -81.60   
   896. D(C   2,C  16,C   3,C  17)    -61.20 -0.000002    0.00    -61.20   
   897. D(C  15,C  16,C   0,C  17)   -114.18  0.000001   -0.00   -114.18   
   898. D(C  15,C  16,C   0,H   6)   -114.17 -0.000002    0.00   -114.17   
   899. D(C  15,C  16,C   0,C   5)    126.69 -0.000006    0.01    126.70   
   900. D(C  15,C  16,C   4,H  10)    115.43  0.000002   -0.00    115.42   
   901. D(C  15,C  16,C   0,C   1)      0.00 -0.000000   -0.00     -0.00   
   902. D(C   2,C  16,C  15,C   3)    -18.89 -0.000000    0.00    -18.89   
   903. D(C   2,C  16,C  15,H  21)    -96.42 -0.000021    0.02    -96.40   
   904. D(C   2,C  16,C  15,C  14)     83.57  0.000004   -0.01     83.56   
   905. D(C   3,C  16,C  15,C   4)     -0.01  0.000004   -0.00     -0.01   
   906. D(C   3,C  16,C  15,C   1)     36.52  0.000004   -0.00     36.51   
   907. D(C   3,C  16,C  15,C   2)     18.89  0.000000   -0.00     18.89   
   908. D(C   3,C  16,C  15,H  21)    -77.53 -0.000021    0.02    -77.50   
   909. D(H  22,C  16,C  15,C   4)     77.49  0.000035   -0.05     77.45   
   910. D(H  22,C  16,C  15,C   1)    114.02  0.000035   -0.05    113.97   
   911. D(H  22,C  16,C  15,C   3)     77.50  0.000031   -0.04     77.46   
   912. D(H  22,C  16,C  15,H  21)     -0.02  0.000010   -0.02     -0.04   
   913. D(H  22,C  16,C  15,C  14)    179.97  0.000036   -0.06    179.91   
   914. D(C  17,C  16,C  15,C   4)   -102.50  0.000004   -0.00   -102.50   
   915. D(C  17,C  16,C  15,C   3)   -102.49  0.000001    0.00   -102.49   
   916. D(C  17,C  16,C  15,C   2)    -83.60  0.000001   -0.00    -83.60   
   917. D(C  17,C  16,C  15,H  21)    179.99 -0.000020    0.02    180.01   
   918. D(C  17,C  16,C  15,C  14)     -0.02  0.000005   -0.01     -0.04   
   919. D(C   3,C  16,C   5,C  12)   -121.26  0.000003    0.00   -121.25   
   920. D(C   3,C  16,C   5,C  17)   -148.61  0.000003    0.00   -148.60   
   921. D(C   3,C  16,C   5,H  11)    145.55  0.000004    0.00    145.55   
   922. D(C   3,C  16,C   5,C   0)    -95.18 -0.000005    0.01    -95.17   
   923. D(H  22,C  16,C   5,C  12)    153.96 -0.000010    0.02    153.98   
   924. D(H  22,C  16,C   5,C  17)    126.61 -0.000009    0.02    126.63   
   925. D(H  22,C  16,C   5,H  11)     60.77 -0.000009    0.02     60.78   
   926. D(H  22,C  16,C   5,C   4)    -53.39 -0.000009    0.02    -53.37   
   927. D(H  22,C  16,C   5,C   0)   -179.96 -0.000018    0.03   -179.93   
   928. D(C  17,C  16,C   5,C  12)     27.35 -0.000001   -0.00     27.35   
   929. D(C  17,C  16,C   5,H  11)    -65.85  0.000000    0.00    -65.84   
   930. D(C  17,C  16,C   5,C   4)   -180.00  0.000001   -0.00   -180.00   
   931. D(C  17,C  16,C   5,C   0)     53.43 -0.000008    0.01     53.44   
   932. D(C   3,C  16,C   5,C   4)     31.39  0.000004    0.00     31.40   
   933. D(C  15,C  16,C   5,C  12)    -86.79  0.000000    0.00    -86.79   
   934. D(C  15,C  16,C   5,C  17)   -114.14  0.000001    0.00   -114.14   
   935. D(C  15,C  16,C   5,H  11)   -179.99  0.000001    0.00   -179.99   
   936. D(C  15,C  16,C   5,C   4)     65.86  0.000001    0.00     65.86   
   937. D(C  15,C  16,C   5,C   0)    -60.72 -0.000008    0.01    -60.70   
   938. D(C   2,C  16,C   4,C   5)    -89.99 -0.000006    0.00    -89.98   
   939. D(C   2,C  16,C   4,C   3)     32.25  0.000000   -0.00     32.24   
   940. D(C  17,C  16,C  15,C   1)    -65.97  0.000004   -0.00    -65.97   
   941. D(C   3,C  16,C   4,C  15)      0.03 -0.000010    0.01      0.04   
   942. D(C   3,C  16,C   4,C  17)   -122.24 -0.000007    0.01   -122.23   
   943. D(C   3,C  16,C   4,H  10)    115.46 -0.000008    0.01    115.46   
   944. D(H  22,C  16,C  15,C   2)     96.40  0.000031   -0.04     96.35   
   945. D(C   3,C  16,C   4,C   5)   -122.24 -0.000007    0.01   -122.23   
   946. D(H  22,C  16,C   4,C  15)   -115.46 -0.000003    0.01   -115.45   
   947. D(H  22,C  16,C   4,C  17)    122.27  0.000000    0.01    122.28   
   948. D(C   3,C  16,C  15,C  14)    102.46  0.000004   -0.01    102.45   
   949. D(H  22,C  16,C   4,H  10)     -0.03 -0.000001    0.00     -0.03   
   950. D(H  22,C  16,C   4,C   5)    122.27  0.000001    0.00    122.28   
   951. D(H  22,C  16,C   4,C   3)   -115.49  0.000008   -0.00   -115.49   
   952. D(C  17,C  16,C   4,C  15)    122.27 -0.000003    0.00    122.27   
   953. D(C  17,C  16,C   4,H  10)   -122.30 -0.000001   -0.00   -122.31   
   954. D(C  17,C  16,C   4,C   5)      0.00  0.000000   -0.00      0.00   
   955. D(C  17,C  16,C   4,C   3)    122.24  0.000007   -0.01    122.23   
   956. D(C   2,C  16,C  15,C   1)     17.62  0.000004   -0.00     17.62   
   957. D(C  15,C  16,C   4,C  17)   -122.27  0.000003   -0.00   -122.27   
   958. D(C   1,C  17,C  16,C  15)     77.35 -0.000005    0.00     77.35   
   959. D(C   0,C  17,C  16,C   5)    -17.66 -0.000002   -0.00    -17.67   
   960. D(C   0,C  17,C  16,C   1)     18.89  0.000001   -0.00     18.89   
   961. D(C   0,C  17,C  16,C   4)    -17.67 -0.000002   -0.00    -17.67   
   962. D(C   0,C  17,C  16,C   2)     18.89  0.000001   -0.00     18.89   
   963. D(C   0,C  17,C  16,H  22)    -83.75 -0.000034    0.05    -83.71   
   964. D(C   0,C  17,C  16,C  15)     96.24 -0.000004    0.00     96.24   
   965. D(H  23,C  17,C  16,C   0)     83.76  0.000029   -0.04     83.73   
   966. D(H  23,C  17,C  16,C   1)    102.65  0.000030   -0.04    102.61   
   967. D(H  23,C  17,C  16,C   4)     66.10  0.000027   -0.04     66.06   
   968. D(H  23,C  17,C  16,C   2)    102.65  0.000030   -0.04    102.61   
   969. D(H  23,C  17,C  16,H  22)      0.01 -0.000005    0.01      0.02   
   970. D(H  23,C  17,C  16,C  15)    180.00  0.000026   -0.03    179.97   
   971. D(C  12,C  17,C  16,C   0)    -96.24  0.000006   -0.00    -96.24   
   972. D(C  12,C  17,C  16,C   5)   -113.90  0.000004   -0.01   -113.91   
   973. D(C  12,C  17,C  16,C   1)    -77.35  0.000007   -0.00    -77.35   
   974. D(C  12,C  17,C  16,C   4)   -113.90  0.000003   -0.01   -113.91   
   975. D(C  12,C  17,C  16,C   2)    -77.35  0.000007   -0.01    -77.35   
   976. D(C  12,C  17,C  16,H  22)   -179.99 -0.000029    0.04   -179.95   
   977. D(C  12,C  17,C  16,C  15)      0.00  0.000002   -0.00     -0.00   
   978. D(C   1,C  17,C  12,C   2)    -17.62 -0.000003    0.00    -17.62   
   979. D(C   1,C  17,C  12,H  18)     96.41  0.000023   -0.02     96.39   
   980. D(C   1,C  17,C  12,C  13)    -83.58 -0.000005    0.01    -83.56   
   981. D(C   0,C  17,C  12,C   5)      0.01 -0.000004    0.00      0.01   
   982. D(C   0,C  17,C  12,C   1)    -18.89 -0.000000    0.00    -18.89   
   983. D(C   0,C  17,C  12,H  18)     77.52  0.000023   -0.02     77.50   
   984. D(C   0,C  17,C  12,C  13)   -102.47 -0.000005    0.01   -102.45   
   985. D(H  23,C  17,C  12,C   5)    -77.50 -0.000031    0.04    -77.46   
   986. D(H  23,C  17,C  12,C   2)   -114.03 -0.000031    0.04   -113.99   
   987. D(H  23,C  17,C  12,C   0)    -77.51 -0.000027    0.04    -77.47   
   988. D(H  23,C  17,C  12,C   1)    -96.40 -0.000027    0.04    -96.37   
   989. D(H  23,C  17,C  12,C  13)   -179.98 -0.000032    0.05   -179.93   
   990. D(C  16,C  17,C  12,C   5)    102.50 -0.000007    0.01    102.51   
   991. D(C  16,C  17,C  12,C   2)     65.97 -0.000007    0.01     65.98   
   992. D(C  16,C  17,C  12,C   1)     83.60 -0.000004    0.00     83.60   
   993. D(C  16,C  17,C  12,H  18)   -179.99  0.000019   -0.02   -180.01   
   994. D(C  16,C  17,C  12,C  13)      0.02 -0.000009    0.02      0.04   
   995. D(C   1,C  17,C   5,C   0)    -32.25 -0.000001    0.01    -32.25   
   996. D(C   0,C  17,C   5,C  12)     -0.03  0.000011   -0.01     -0.04   
   997. D(C   0,C  17,C   5,C  16)    122.24  0.000007   -0.01    122.23   
   998. D(C   0,C  17,C   5,H  11)   -115.46  0.000008   -0.01   -115.46   
   999. D(C   0,C  17,C   5,C   4)    122.24  0.000007   -0.01    122.23   
  1000. D(H  23,C  17,C   5,C  12)    115.46  0.000002   -0.00    115.46   
  1001. D(H  23,C  17,C   5,C  16)   -122.27 -0.000001   -0.00   -122.27   
  1002. D(H  23,C  17,C   5,C   4)   -122.27 -0.000001   -0.00   -122.27   
  1003. D(H  23,C  17,C   5,C   0)    115.49 -0.000008    0.01    115.50   
  1004. D(C  16,C  17,C   5,C  12)   -122.27  0.000004   -0.00   -122.27   
  1005. D(C  16,C  17,C   5,C   4)      0.00  0.000000   -0.00      0.00   
  1006. D(C  16,C  17,C   5,C   0)   -122.24 -0.000007    0.01   -122.23   
  1007. D(C  12,C  17,C   5,C  16)    122.27 -0.000004    0.00    122.27   
  1008. D(C  12,C  17,C   5,C   4)    122.27 -0.000003    0.00    122.28   
  1009. D(C  12,C  17,C   5,C   0)      0.03 -0.000011    0.01      0.04   
  1010. D(C   0,C  17,C   4,C  15)    121.26 -0.000003   -0.00    121.25   
  1011. D(C   0,C  17,C   4,C  16)    148.61 -0.000004   -0.00    148.60   
  1012. D(C   0,C  17,C   4,H  10)   -145.55 -0.000004   -0.00   -145.55   
  1013. D(C   0,C  17,C   4,C   5)    -31.39 -0.000003   -0.00    -31.39   
  1014. D(C   0,C  17,C   4,C   3)     95.18  0.000004   -0.01     95.16   
  1015. D(H  23,C  17,C   4,C  16)   -126.61  0.000007   -0.01   -126.62   
  1016. D(H  23,C  17,C   4,H  10)    -60.76  0.000007   -0.01    -60.78   
  1017. D(H  23,C  17,C   4,C   5)     53.40  0.000008   -0.01     53.38   
  1018. D(C  16,C  17,C   4,C  15)    -27.35  0.000001    0.00    -27.35   
  1019. D(C  16,C  17,C   4,H  10)     65.85  0.000000   -0.00     65.84   
  1020. D(C  16,C  17,C   4,C   5)   -180.00  0.000001   -0.00   -180.00   
  1021. D(C  12,C  17,C   4,C  15)     86.79  0.000000   -0.00     86.79   
  1022. D(C  12,C  17,C   4,C  16)    114.15 -0.000001   -0.00    114.14   
  1023. D(C  12,C  17,C   4,H  10)    179.99 -0.000001   -0.00    179.99   
  1024. D(C  12,C  17,C   4,C   5)    -65.85 -0.000001   -0.00    -65.85   
  1025. D(C  12,C  17,C   4,C   3)     60.71  0.000007   -0.01     60.71   
  1026. D(C   0,C  17,C   3,C  16)   -180.00  0.000000   -0.00   -180.00   
  1027. D(C   0,C  17,C   3,H   9)    179.99  0.000003   -0.00    179.98   
  1028. D(C   0,C  17,C   3,C   2)     65.82  0.000002   -0.00     65.82   
  1029. D(H  23,C  17,C   3,C  14)    179.99  0.000006   -0.01    179.98   
  1030. D(H  23,C  17,C   3,C  15)   -151.75  0.000009   -0.01   -151.76   
  1031. D(H  23,C  17,C   3,H   9)   -119.18  0.000012   -0.02   -119.19   
  1032. D(H  23,C  17,C   3,C   4)     -0.04  0.000015   -0.02     -0.06   
  1033. D(H  23,C  17,C   3,C   2)    126.66  0.000010   -0.01    126.64   
  1034. D(C  16,C  17,C   3,C  14)    -60.85 -0.000003   -0.00    -60.85   
  1035. D(C  16,C  17,C   3,C  15)    -32.58  0.000000   -0.00    -32.58   
  1036. D(C  16,C  17,C   3,H   9)     -0.01  0.000003   -0.00     -0.02   
  1037. D(C  16,C  17,C   3,C   4)    119.12  0.000007   -0.01    119.12   
  1038. D(C  16,C  17,C   3,C   2)   -114.18  0.000002   -0.00   -114.18   
  1039. D(C  12,C  17,C   3,C  14)     53.34 -0.000003   -0.00     53.34   
  1040. D(H  23,C  17,C   3,C  16)   -119.16  0.000009   -0.01   -119.17   
  1041. D(C  12,C  17,C   3,C  15)     81.60 -0.000000   -0.00     81.60   
  1042. D(C  12,C  17,C   3,C  16)    114.19 -0.000000   -0.00    114.19   
  1043. D(C  12,C  17,C   3,H   9)    114.17  0.000003   -0.00    114.17   
  1044. D(C   0,C  17,C   3,C   4)    -60.88  0.000007   -0.01    -60.88   
  1045. D(C  12,C  17,C   3,C   4)   -126.69  0.000006   -0.01   -126.70   
  1046. D(C  12,C  17,C   3,C   2)      0.00  0.000001   -0.00      0.00   
  1047. D(C   0,C  17,C   2,C   3)    -90.02 -0.000001    0.00    -90.02   
  1048. D(C   0,C  17,C   2,C   1)     32.30 -0.000001    0.00     32.30   
  1049. D(H  23,C  17,C   2,C  12)    122.27  0.000001   -0.00    122.27   
  1050. D(H  23,C  17,C   2,C  13)    150.07  0.000006   -0.01    150.06   
  1051. D(H  23,C  17,C   2,C  14)    179.99 -0.000002   -0.00    179.99   
  1052. D(C  16,C  17,C   4,C   3)    -53.43  0.000008   -0.01    -53.44   
  1053. D(H  23,C  17,C   2,C  16)   -115.40  0.000002   -0.00   -115.41   
  1054. D(H  23,C  17,C   2,C  15)   -147.70  0.000003   -0.00   -147.71   
  1055. D(H  23,C  17,C   2,H   8)   -180.00 -0.000001    0.00   -180.00   
  1056. D(H  23,C  17,C   4,C   3)    179.96  0.000015   -0.02    179.94   
  1057. D(H  23,C  17,C   2,C   3)    -57.72  0.000002   -0.00    -57.73   
  1058. D(H  23,C  17,C   2,C   1)     64.60  0.000002   -0.00     64.59   
  1059. D(C  16,C  17,C   2,C  12)   -122.33 -0.000001    0.00   -122.32   
  1060. D(H  23,C  17,C   4,C  15)   -153.96  0.000008   -0.01   -153.97   
  1061. D(C  16,C  17,C   2,C  13)    -94.53  0.000004   -0.00    -94.54   
  1062. D(C  16,C  17,C   2,C  14)    -64.61 -0.000004   -0.00    -64.61   
  1063. D(C  16,C  17,C   2,C  15)    -32.30  0.000001   -0.00    -32.30   
  1064. D(C  16,C  17,C   2,H   8)    -64.59 -0.000003    0.01    -64.59   
  1065. D(C  16,C  17,C   2,C   3)     57.68  0.000000    0.00     57.68   
  1066. D(C  16,C  17,C   2,C   1)    180.00  0.000000    0.00    180.00   
  1067. D(C  12,C  17,C   2,C  13)     27.79  0.000005   -0.01     27.79   
  1068. D(C  12,C  17,C   5,H  11)   -115.43 -0.000002    0.00   -115.42   
  1069. D(C  12,C  17,C   2,C  14)     57.72 -0.000003   -0.00     57.72   
  1070. D(C  12,C  17,C   2,C  16)    122.33  0.000001   -0.00    122.32   
  1071. D(C  12,C  17,C   2,C  15)     90.03  0.000002   -0.00     90.02   
  1072. D(C  16,C  17,C   5,H  11)    122.30  0.000001    0.00    122.30   
  1073. D(C  12,C  17,C   2,H   8)     57.73 -0.000002    0.00     57.73   
  1074. D(C  12,C  17,C   2,C   3)   -180.00  0.000001   -0.00   -180.00   
  1075. D(C  12,C  17,C   2,C   1)    -57.68  0.000001   -0.00    -57.68   
  1076. D(H  23,C  17,C   5,H  11)      0.03  0.000000   -0.00      0.03   
  1077. D(C   0,C  17,C   1,H   7)    118.78 -0.000007    0.01    118.79   
  1078. D(C   0,C  17,C   1,C   2)   -120.61  0.000002    0.00   -120.61   
  1079. D(H  23,C  17,C   1,C  15)   -150.02 -0.000006    0.01   -150.01   
  1080. D(H  23,C  17,C   1,C  14)    180.00 -0.000010    0.01    180.00   
  1081. D(H  23,C  17,C   1,C  16)   -120.61 -0.000008    0.01   -120.60   
  1082. D(H  23,C  17,C   1,C  13)    149.38 -0.000002    0.00    149.38   
  1083. D(H  23,C  17,C   1,C  12)    118.78 -0.000007    0.01    118.79   
  1084. D(C   1,C  17,C   5,C   4)     89.99  0.000006   -0.00     89.99   
  1085. D(H  23,C  17,C   1,H   7)    118.78 -0.000017    0.02    118.79   
  1086. D(H  23,C  17,C   1,C   2)   -120.61 -0.000008    0.01   -120.60   
  1087. D(H  23,C  17,C   1,C   0)     -0.00 -0.000010    0.01      0.00   
  1088. D(C  16,C  17,C  12,C   0)    102.49 -0.000004    0.00    102.49   
  1089. D(C  16,C  17,C   1,C  15)    -29.41  0.000002   -0.00    -29.41   
  1090. D(C  16,C  17,C   1,C  14)    -59.39 -0.000002   -0.00    -59.39   
  1091. D(C  16,C  17,C   1,C  13)    -90.01  0.000006   -0.00    -90.02   
  1092. D(H  23,C  17,C  12,H  18)      0.01 -0.000004    0.01      0.02   
  1093. D(C  16,C  17,C   1,C  12)   -120.61  0.000001    0.00   -120.61   
  1094. D(C  16,C  17,C   1,H   7)   -120.61 -0.000009    0.01   -120.60   
  1095. D(C  16,C  17,C   1,C   2)     -0.00  0.000000    0.00     -0.00   
  1096. D(C  16,C  17,C   1,C   0)    120.61 -0.000002    0.00    120.61   
  1097. D(C  12,C  17,C   1,C  15)     91.20  0.000002   -0.00     91.20   
  1098. D(C  12,C  17,C   1,C  14)     61.22 -0.000003   -0.00     61.22   
  1099. D(C  12,C  17,C   1,C  16)    120.61 -0.000001   -0.00    120.61   
  1100. D(C   0,C  17,C  12,C   2)    -36.52 -0.000004    0.00    -36.51   
  1101. D(C  12,C  17,C   1,C  13)     30.60  0.000005   -0.00     30.59   
  1102. D(C  12,C  17,C   1,H   7)     -0.00 -0.000010    0.01      0.00   
  1103. D(C  12,C  17,C   1,C   2)    120.61 -0.000000   -0.00    120.61   
  1104. D(C   1,C  17,C  12,C   0)     18.89  0.000000   -0.00     18.89   
  1105. D(C  12,C  17,C   1,C   0)   -118.78 -0.000002   -0.00   -118.78   
  1106. D(C   1,C  17,C   0,C  13)    -29.99  0.000007   -0.00    -29.99   
  1107. D(C   1,C  17,C   0,C  16)     61.20  0.000002    0.00     61.20   
  1108. D(C  12,C  17,C  16,C   3)    -96.24  0.000006   -0.00    -96.24   
  1109. D(C   1,C  17,C   0,C  12)    -59.38  0.000004   -0.00    -59.38   
  1110. D(C   1,C  17,C   0,H   6)   -118.79 -0.000001    0.00   -118.79   
  1111. D(C   1,C  17,C   0,C   5)    120.65 -0.000006    0.01    120.66   
  1112. D(H  23,C  17,C   0,C  13)    150.01 -0.000002    0.01    150.01   
  1113. D(H  23,C  17,C   0,C  16)   -118.80 -0.000008    0.01   -118.79   
  1114. D(H  23,C  17,C   0,C  12)    120.62 -0.000006    0.01    120.63   
  1115. D(H  23,C  17,C   0,H   6)     61.21 -0.000011    0.01     61.22   
  1116. D(H  23,C  17,C  16,C   3)     83.76  0.000029   -0.04     83.73   
  1117. D(H  23,C  17,C   0,C   5)    -59.35 -0.000016    0.02    -59.34   
  1118. D(H  23,C  17,C   0,C   1)    180.00 -0.000010    0.01    180.00   
  1119. D(C  16,C  17,C   0,C  13)    -91.19  0.000006   -0.00    -91.19   
  1120. D(H  23,C  17,C  16,C   5)     66.10  0.000027   -0.04     66.06   
  1121. D(C  16,C  17,C   0,C  12)   -120.58  0.000002   -0.00   -120.58   
  1122. D(C  16,C  17,C   0,H   6)   -179.99 -0.000003    0.00   -179.99   
  1123. D(C  16,C  17,C   0,C   5)     59.45 -0.000008    0.01     59.46   
  1124. D(C   0,C  17,C  16,C   3)      0.00  0.000000   -0.00     -0.00   
  1125. D(C  16,C  17,C   0,C   1)    -61.20 -0.000002   -0.00    -61.20   
  1126. D(C  12,C  17,C   0,C  13)     29.39  0.000004   -0.00     29.39   
  1127. D(C  12,C  17,C   0,C  16)    120.58 -0.000002    0.00    120.58   
  1128. D(C  12,C  17,C   0,H   6)    -59.41 -0.000005    0.00    -59.41   
  1129. D(C  12,C  17,C   0,C   5)   -179.97 -0.000010    0.01   -179.96   
  1130. D(C  12,C  17,C   0,C   1)     59.38 -0.000004    0.00     59.38   
    ----------------------------------------------------------------------------

Geometry step timings:
Preparation and reading OPT file:      0.000 s ( 0.007 %)
Internal coordinates            :      0.000 s ( 0.031 %)
B/P matrices and projection     :      0.184 s (42.898 %)
Hessian update/contruction      :      0.029 s ( 6.749 %)
Making the step                 :      0.203 s (47.275 %)
Converting the step to Cartesian:      0.006 s ( 1.317 %)
Storing new data                :      0.000 s ( 0.015 %)
Checking convergence            :      0.001 s ( 0.324 %)
Final printing                  :      0.006 s ( 1.383 %)
Total time                      :      0.429 s
                 *******************************************************
                 *** FINAL ENERGY EVALUATION AT THE STATIONARY POINT ***
                 ***               (AFTER    3 CYCLES)               ***
                 *******************************************************
---------------------------------
CARTESIAN COORDINATES (ANGSTROEM)
---------------------------------
  C     -0.799089    1.387122   -1.799914
  C      0.402763    0.693387   -1.800833
  C      0.402760   -0.693403   -1.800772
  C     -0.799105   -1.387124   -1.799853
  C     -2.001210   -0.694078   -1.798066
  C     -2.001198    0.694078   -1.798188
  H     -0.798845    2.469371   -1.799674
  H      1.339527    1.234165   -1.800664
  H      1.339527   -1.234176   -1.800752
  H     -0.798842   -2.469376   -1.799942
  H     -2.938441   -1.235523   -1.798827
  H     -2.938424    1.235534   -1.798928
  C      0.799097    1.387178    1.799845
  C      2.001180    0.694080    1.798198
  C      2.001183   -0.694073    1.798198
  C      0.799099   -1.387161    1.799899
  C     -0.402737   -0.693401    1.800765
  C     -0.402734    0.693397    1.800725
  H      0.798852    2.469425    1.799604
  H      2.938422    1.235511    1.798960
  H      2.938423   -1.235503    1.798935
  H      0.798849   -2.469409    1.799820
  H     -1.339525   -1.234139    1.800630
  H     -1.339530    1.234119    1.800833

----------------------------
CARTESIAN COORDINATES (A.U.)
----------------------------
  NO LB      ZA    FRAG     MASS         X           Y           Z
   0 C     6.0000    0    12.011   -1.510060    2.621281   -3.401344
   1 C     6.0000    0    12.011    0.761111    1.310311   -3.403082
   2 C     6.0000    0    12.011    0.761106   -1.310341   -3.402966
   3 C     6.0000    0    12.011   -1.510090   -2.621284   -3.401229
   4 C     6.0000    0    12.011   -3.781740   -1.311618   -3.397853
   5 C     6.0000    0    12.011   -3.781716    1.311618   -3.398082
   6 H     1.0000    0     1.008   -1.509599    4.666435   -3.400890
   7 H     1.0000    0     1.008    2.531339    2.332234   -3.402761
   8 H     1.0000    0     1.008    2.531338   -2.332255   -3.402928
   9 H     1.0000    0     1.008   -1.509592   -4.666444   -3.401397
  10 H     1.0000    0     1.008   -5.552848   -2.334800   -3.399290
  11 H     1.0000    0     1.008   -5.552816    2.334820   -3.399482
  12 C     6.0000    0    12.011    1.510075    2.621386    3.401214
  13 C     6.0000    0    12.011    3.781682    1.311621    3.398102
  14 C     6.0000    0    12.011    3.781688   -1.311607    3.398102
  15 C     6.0000    0    12.011    1.510078   -2.621354    3.401316
  16 C     6.0000    0    12.011   -0.761063   -1.310338    3.402954
  17 C     6.0000    0    12.011   -0.761056    1.310330    3.402877
  18 H     1.0000    0     1.008    1.509612    4.666537    3.400758
  19 H     1.0000    0     1.008    5.552812    2.334777    3.399542
  20 H     1.0000    0     1.008    5.552814   -2.334762    3.399494
  21 H     1.0000    0     1.008    1.509605   -4.666507    3.401167
  22 H     1.0000    0     1.008   -2.531336   -2.332184    3.402697
  23 H     1.0000    0     1.008   -2.531345    2.332146    3.403081

--------------------------------
INTERNAL COORDINATES (ANGSTROEM)
--------------------------------
 C      0   0   0     0.000000000000     0.00000000     0.00000000
 C      1   0   0     1.387702278519     0.00000000     0.00000000
 C      2   1   0     1.386789376672   119.99436548     0.00000000
 C      3   2   1     1.387706688949   119.99382326     0.00000000
 C      4   3   2     1.387577711174   120.04172225   359.95570191
 C      1   2   3     1.387579778888   120.04105947     0.03551602
 H      1   2   3     1.082248856394   119.98158407   179.98238444
 H      2   1   3     1.081650908057   120.00837576   180.05716659
 H      3   2   1     1.081650529704   119.99670909   180.04506397
 H      4   3   2     1.082252134334   119.97973548   179.99165295
 H      5   4   3     1.082387755446   120.01998903   179.90972803
 H      6   1   2     1.082389469426   120.01949791   180.08909275
 C      8   2   1     3.644055559968    83.84081442    83.56919731
 C     13   8   2     1.387584411621    81.33686950   119.52590891
 C     14  13   8     1.388152556969   119.96702525   267.77516976
 C     15  14  13     1.387580821359   119.96637514     0.00000000
 C     16  15  14     1.387700418206   120.03781003     0.03974377
 C     17  16  15     1.386797715982   119.99553081   359.96217302
 H     13   8   2     1.082247554202    92.39582260   239.49477631
 H     14  13   8     1.082390615119   120.01860286    87.90024590
 H     15  14  13     1.082388648352   120.01456420   180.12352750
 H     16  15  14     1.082248760988   119.97974714   179.99518670
 H     17  16  15     1.081651162457   120.00969666   179.91060398
 H     18  17  16     1.081650469012   119.99354955   179.96526901

---------------------------
INTERNAL COORDINATES (A.U.)
---------------------------
 C      0   0   0     0.000000000000     0.00000000     0.00000000
 C      1   0   0     2.622377261820     0.00000000     0.00000000
 C      2   1   0     2.620652127342   119.99436548     0.00000000
 C      3   2   1     2.622385596324   119.99382326     0.00000000
 C      4   3   2     2.622141863652   120.04172225   359.95570191
 C      1   2   3     2.622145771066   120.04105947     0.03551602
 H      1   2   3     2.045153947335   119.98158407   179.98238444
 H      2   1   3     2.044023988734   120.00837576   180.05716659
 H      3   2   1     2.044023273751   119.99670909   180.04506397
 H      4   3   2     2.045160141743   119.97973548   179.99165295
 H      5   4   3     2.045416428502   120.01998903   179.90972803
 H      6   1   2     2.045419667455   120.01949791   180.08909275
 C      8   2   1     6.886267025133    83.84081442    83.56919731
 C     13   8   2     2.622154525662    81.33686950   119.52590891
 C     14  13   8     2.623228164774   119.96702525   267.77516976
 C     15  14  13     2.622147741050   119.96637514     0.00000000
 C     16  15  14     2.622373746338   120.03781003     0.03974377
 C     17  16  15     2.620667886353   119.99553081   359.96217302
 H     13   8   2     2.045151486547    92.39582260   239.49477631
 H     14  13   8     2.045421832501   120.01860286    87.90024590
 H     15  14  13     2.045418115851   120.01456420   180.12352750
 H     16  15  14     2.045153767042   119.97974714   179.99518670
 H     17  16  15     2.044024469482   120.00969666   179.91060398
 H     18  17  16     2.044023159060   119.99354955   179.96526901

---------------------
BASIS SET INFORMATION
---------------------
There are 2 groups of distinct atoms

 Group   1 Type C   : 11s6p1d contracted to 5s3p1d pattern {62111/411/1}
 Group   2 Type H   : 5s contracted to 3s pattern {311}

Atom   0C    basis set group =>   1
Atom   1C    basis set group =>   1
Atom   2C    basis set group =>   1
Atom   3C    basis set group =>   1
Atom   4C    basis set group =>   1
Atom   5C    basis set group =>   1
Atom   6H    basis set group =>   2
Atom   7H    basis set group =>   2
Atom   8H    basis set group =>   2
Atom   9H    basis set group =>   2
Atom  10H    basis set group =>   2
Atom  11H    basis set group =>   2
Atom  12C    basis set group =>   1
Atom  13C    basis set group =>   1
Atom  14C    basis set group =>   1
Atom  15C    basis set group =>   1
Atom  16C    basis set group =>   1
Atom  17C    basis set group =>   1
Atom  18H    basis set group =>   2
Atom  19H    basis set group =>   2
Atom  20H    basis set group =>   2
Atom  21H    basis set group =>   2
Atom  22H    basis set group =>   2
Atom  23H    basis set group =>   2
---------------------------------
AUXILIARY/J BASIS SET INFORMATION
---------------------------------
There are 2 groups of distinct atoms

 Group   1 Type C   : 8s3p3d contracted to 6s3p3d pattern {311111/111/111}
 Group   2 Type H   : 5s2p contracted to 3s1p pattern {311/2}

Atom   0C    basis set group =>   1
Atom   1C    basis set group =>   1
Atom   2C    basis set group =>   1
Atom   3C    basis set group =>   1
Atom   4C    basis set group =>   1
Atom   5C    basis set group =>   1
Atom   6H    basis set group =>   2
Atom   7H    basis set group =>   2
Atom   8H    basis set group =>   2
Atom   9H    basis set group =>   2
Atom  10H    basis set group =>   2
Atom  11H    basis set group =>   2
Atom  12C    basis set group =>   1
Atom  13C    basis set group =>   1
Atom  14C    basis set group =>   1
Atom  15C    basis set group =>   1
Atom  16C    basis set group =>   1
Atom  17C    basis set group =>   1
Atom  18H    basis set group =>   2
Atom  19H    basis set group =>   2
Atom  20H    basis set group =>   2
Atom  21H    basis set group =>   2
Atom  22H    basis set group =>   2
Atom  23H    basis set group =>   2


           ************************************************************
           *        Program running with 4 parallel MPI-processes     *
           *              working on a common directory               *
           ************************************************************
------------------------------------------------------------------------------
                             ORCA STARTUP CALCULATIONS
                           -- RI-GTO INTEGRALS CHOSEN --
------------------------------------------------------------------------------
------------------------------------------------------------------------------
                   ___                                                        
                  /   \      - P O W E R E D   B Y -                         
                 /     \                                                     
                 |  |  |   _    _      __       _____    __    __             
                 |  |  |  | |  | |    /  \     |  _  \  |  |  /  |          
                  \  \/   | |  | |   /    \    | | | |  |  | /  /          
                 / \  \   | |__| |  /  /\  \   | |_| |  |  |/  /          
                |  |  |   |  __  | /  /__\  \  |    /   |      \           
                |  |  |   | |  | | |   __   |  |    \   |  |\   \          
                \     /   | |  | | |  |  |  |  | |\  \  |  | \   \       
                 \___/    |_|  |_| |__|  |__|  |_| \__\ |__|  \__/        
                                                                              
                      - O R C A' S   B I G   F R I E N D -                    
                                      &                                       
                       - I N T E G R A L  F E E D E R -                       
                                                                              
 v1 FN, 2020, v2 2021, v3 2022-2024                                           
------------------------------------------------------------------------------


----------------------
SHARK INTEGRAL PACKAGE
----------------------

Number of atoms                             ...     24
Number of basis functions                   ...    264
Number of shells                            ...    144
Maximum angular momentum                    ...      2
Integral batch strategy                     ... SHARK/LIBINT Hybrid
RI-J (if used) integral strategy            ... SPLIT-RIJ (Revised 2003 algorithm where possible)
Printlevel                                  ...      1
Contraction scheme used                     ... SEGMENTED contraction
Prescreening option                         ... SCHWARTZ
   Thresh                                   ... 2.500e-11
   Tcut                                     ... 2.500e-12
   Tpresel                                  ... 2.500e-12 
Coulomb Range Separation                    ... NOT USED
Exchange Range Separation                   ... NOT USED
Multipole approximations                    ... NOT USED
Finite Nucleus Model                        ... NOT USED
CABS basis                                  ... NOT available
Auxiliary Coulomb fitting basis             ... AVAILABLE
   # of basis functions in Aux-J            ...    432
   # of shells in Aux-J                     ...    192
   Maximum angular momentum in Aux-J        ...      2
Auxiliary J/K fitting basis                 ... NOT available
Auxiliary Correlation fitting basis         ... NOT available
Auxiliary 'external' fitting basis          ... NOT available

Checking pre-screening integrals            ... done (  0.0 sec) Dimension = 144
   => SHARK Basis and OBASIS are compatible. Storing Pre-screening
Shell pair information
Shell pair cut-off parameter TPreSel        ...   2.5e-12
Total number of shell pairs                 ...     10440
Shell pairs after pre-screening             ...      9148
Total number of primitive shell pairs       ...     38526
Primitive shell pairs kept                  ...     22702
          la=0 lb=0:   3874 shell pairs
          la=1 lb=0:   3204 shell pairs
          la=1 lb=1:    652 shell pairs
          la=2 lb=0:    936 shell pairs
          la=2 lb=1:    412 shell pairs
          la=2 lb=2:     70 shell pairs

Checking whether 4 symmetric matrices of dimension 264 fit in memory
:Max Core in MB      =   2500.00
 MB in use           =     13.22
 MB left             =   2486.78
 MB needed           =      1.07
 Data fit in memory  = YES
Calculating RI/J V-Matrix + Cholesky decomp.... done (  0.0 sec)
Calculating Nuclear repulsion               ... done (  0.0 sec) ENN=    621.594578727251 Eh

Diagonalization of the overlap matrix:
Smallest eigenvalue                        ... 9.650e-06
Time for diagonalization                   ...    0.009 sec
Threshold for overlap eigenvalues          ... 1.000e-07
Number of eigenvalues below threshold      ... 0
Time for construction of square roots      ...    0.004 sec
Total time needed                          ...    0.014 sec

-------------------
DFT GRID GENERATION
-------------------

General Integration Accuracy     IntAcc      ... 4.388
Radial Grid Type                 RadialGrid  ... OptM3 with GC (2021)
Angular Grid (max. ang.)         AngularGrid ... 4 (Lebedev-302)
Angular grid pruning method      GridPruning ... 4 (adaptive)
Weight generation scheme         WeightScheme... mBecke (2022)
Basis function cutoff            BFCut       ... 1.0000e-11
Integration weight cutoff        WCut        ... 1.0000e-14
Partially contracted basis set               ... off
Rotationally invariant grid construction     ... off
Angular grids for H and He will be reduced by one unit

Total number of grid points                  ...   110180
Total number of batches                      ...     1732
Average number of points per batch           ...       63
Average number of grid points per atom       ...     4591
Grids setup in   1.0 sec
Initializing property integral containers    ... done (  0.0 sec)

SHARK setup successfully completed in   1.1 seconds

Maximum memory used throughout the entire STARTUP-calculation: 34.8 MB


           ************************************************************
           *        Program running with 4 parallel MPI-processes     *
           *              working on a common directory               *
           ************************************************************
-------------------------------------------------------------------------------
                                 ORCA GUESS
                   Start orbitals & Density for SCF / CASSCF
-------------------------------------------------------------------------------

------------
SCF SETTINGS
------------
Hamiltonian:
 Density Functional     Method          .... DFT(GTOs)
 Exchange Functional    Exchange        .... B973C
 Correlation Functional Correlation     .... B973C
 Gradients option       PostSCFGGA      .... off
 RI-approximation to the Coulomb term is turned on
   Number of AuxJ basis functions       .... 432


General Settings:
 Integral files         IntName         .... dimero_PD
 Hartree-Fock type      HFTyp           .... RHF
 Total Charge           Charge          ....    0
 Multiplicity           Mult            ....    1
 Number of Electrons    NEL             ....   84
 Basis Dimension        Dim             ....  264
 Nuclear Repulsion      ENuc            ....    621.5945787273 Eh

Convergence Acceleration:
 AO-DIIS                CNVDIIS         .... on
   Start iteration      DIISMaxIt       ....    12
   Startup error        DIISStart       ....  0.200000
   # of expansion vecs  DIISMaxEq       ....     5
   Bias factor          DIISBfac        ....   1.050
   Max. coefficient     DIISMaxC        ....  10.000
 MO-DIIS                CNVKDIIS        .... off
 Trust-Rad. Augm. Hess. CNVTRAH         .... auto
   Auto Start mean grad. ratio tolernc. ....  1.125000
   Auto Start start iteration           ....     1
   Auto Start num. interpolation iter.  ....    10
   Max. Number of Micro iterations      ....    24
   Max. Number of Macro iterations      .... Maxiter - #DIIS iter
   Number of Davidson start vectors     ....     2
   Converg. threshold    (grad. norm)   ....   1.000e-05
   Grad. Scal. Fac. for Micro threshold ....   0.100
   Minimum threshold for Micro iter.    ....   1.000e-02
   NR start threshold (gradient norm)   ....   1.000e-04
   Initial trust radius                 ....   0.400
   Minimum AH scaling param. (alpha)    ....   1.000
   Maximum AH scaling param. (alpha)    .... 1000.000
   Quad. conv. algorithm                .... NR
   White noise on init. David. guess    .... on
   Maximum white noise                  ....   0.010
   Pseudo random numbers                .... off
   Inactive MOs                         .... canonical
   Orbital update algorithm             .... Taylor
   Preconditioner                       .... Diag
   Full preconditioner red. dimension   ....   250
 SOSCF                 CNVSOSCF           .... on
   Start iteration     SOSCFMaxIt         ....   150
   Startup grad/error  SOSCFStart         ....  0.003300
   Hessian update      SOSCFHessUp        .... L-BFGS
   Autom. constraints  SOSCFAutoConstrain .... off
 Level Shifting         CNVShift        .... on
   Level shift para.    LevelShift      ....    0.2500
   Turn off err/grad.   ShiftErr        ....    0.0010
 Zerner damping         CNVZerner       .... off
 Static damping         CNVDamp         .... on
   Fraction old density DampFac         ....    0.7000
   Max. Damping (<1)    DampMax         ....    0.9800
   Min. Damping (>=0)   DampMin         ....    0.0000
   Turn off err/grad.   DampErr         ....    0.1000

SCF Procedure:
 Maximum # iterations   MaxIter         ....   125
 SCF integral mode      SCFMode         .... Direct
   Integral package                     .... SHARK and LIBINT hybrid scheme
 Reset frequency        DirectResetFreq ....    20
 Integral Threshold     Thresh          ....  2.500e-11 Eh
 Primitive CutOff       TCut            ....  2.500e-12 Eh

Convergence Tolerance:
 Convergence Check Mode ConvCheckMode   .... Total+1el-Energy
 Convergence forced     ConvForced      .... 0
 Energy Change          TolE            ....  1.000e-08 Eh
 1-El. energy change                    ....  1.000e-05 Eh
 Orbital Gradient       TolG            ....  1.000e-05
 Orbital Rotation angle TolX            ....  1.000e-05
 DIIS Error             TolErr          ....  5.000e-07

---------------------
INITIAL GUESS: MOREAD
---------------------
Guess MOs are being read from file: dimero_PD.gbw
Input Geometry matches current geometry (good)
Input basis set matches current basis set (good)
Occupation numbers will be reassigned to an Aufbau configuration
MOs were renormalized
MOs were reorthogonalized (Cholesky)
                      ------------------
                      INITIAL GUESS DONE (   0.0 sec)
                      ------------------
             **** ENERGY FILE WAS UPDATED (dimero_PD.en.tmp) ****
Finished Guess after   0.1 sec
Maximum memory used throughout the entire GUESS-calculation: 17.4 MB


           ************************************************************
           *        Program running with 4 parallel MPI-processes     *
           *              working on a common directory               *
           ************************************************************

-------------------------------------------------------------------------------------------
                                      ORCA LEAN-SCF
                              memory conserving SCF solver
-------------------------------------------------------------------------------------------

----------------------------------------D-I-I-S--------------------------------------------
Iteration    Energy (Eh)           Delta-E    RMSDP     MaxDP     DIISErr   Damp  Time(sec)
-------------------------------------------------------------------------------------------
               ***  Starting incremental Fock matrix formation  ***
                              *** Initializing SOSCF ***
---------------------------------------S-O-S-C-F--------------------------------------
Iteration    Energy (Eh)           Delta-E    RMSDP     MaxDP     MaxGrad    Time(sec)
--------------------------------------------------------------------------------------
    1    -464.1257667789722063     0.00e+00  1.22e-04  1.33e-03  1.75e-05     1.0
               *** Restarting incremental Fock matrix formation ***
    2    -464.1257671019765212    -3.23e-07  3.93e-05  4.75e-04  1.85e-05     0.9
    3    -464.1257671059487393    -3.97e-09  1.02e-05  8.55e-05  3.04e-05     0.6
                 **** Energy Check signals convergence ****

               *****************************************************
               *                     SUCCESS                       *
               *           SCF CONVERGED AFTER   3 CYCLES          *
               *****************************************************

             **** ENERGY FILE WAS UPDATED (dimero_PD.en.tmp) ****

----------------
TOTAL SCF ENERGY
----------------

Total Energy       :       -464.12576712902876 Eh          -12629.50420 eV

Components:
Nuclear Repulsion  :        621.59457872725091 Eh           16914.44840 eV
Electronic Energy  :      -1085.72034585627989 Eh          -29543.95260 eV
One Electron Energy:      -1858.38640663256319 Eh          -50569.26502 eV
Two Electron Energy:        772.66606077628342 Eh           21025.31242 eV

Virial components:
Potential Energy   :       -926.56255418640683 Eh          -25213.04891 eV
Kinetic Energy     :        462.43678705737807 Eh           12583.54471 eV
Virial Ratio       :          2.00365234799419

DFT components:
N(Alpha)           :       42.000056978963 electrons
N(Beta)            :       42.000056978963 electrons
N(Total)           :       84.000113957926 electrons
E(XC)              :      -69.204773086478 Eh       

---------------
SCF CONVERGENCE
---------------

  Last Energy change         ...    3.9722e-09  Tolerance :   1.0000e-08
  Last MAX-Density change    ...    8.5496e-05  Tolerance :   1.0000e-07
  Last RMS-Density change    ...    1.0247e-05  Tolerance :   5.0000e-09
  Last DIIS Error            ...    1.1828e-04  Tolerance :   5.0000e-07
  Last Orbital Gradient      ...    3.0379e-05  Tolerance :   1.0000e-05
  Last Orbital Rotation      ...    7.5121e-05  Tolerance :   1.0000e-05


----------------
ORBITAL ENERGIES
----------------

  NO   OCC          E(Eh)            E(eV) 
   0   2.0000      -9.889279      -269.1010 
   1   2.0000      -9.889274      -269.1008 
   2   2.0000      -9.888935      -269.0916 
   3   2.0000      -9.888932      -269.0915 
   4   2.0000      -9.888526      -269.0805 
   5   2.0000      -9.888517      -269.0802 
   6   2.0000      -9.888460      -269.0787 
   7   2.0000      -9.888452      -269.0785 
   8   2.0000      -9.887767      -269.0598 
   9   2.0000      -9.887761      -269.0597 
  10   2.0000      -9.887377      -269.0492 
  11   2.0000      -9.887374      -269.0491 
  12   2.0000      -0.780788       -21.2463 
  13   2.0000      -0.778820       -21.1928 
  14   2.0000      -0.677524       -18.4364 
  15   2.0000      -0.676695       -18.4138 
  16   2.0000      -0.676395       -18.4056 
  17   2.0000      -0.675811       -18.3898 
  18   2.0000      -0.542970       -14.7750 
  19   2.0000      -0.542896       -14.7730 
  20   2.0000      -0.542674       -14.7669 
  21   2.0000      -0.542591       -14.7647 
  22   2.0000      -0.472088       -12.8462 
  23   2.0000      -0.471212       -12.8223 
  24   2.0000      -0.409874       -11.1532 
  25   2.0000      -0.409830       -11.1520 
  26   2.0000      -0.396226       -10.7819 
  27   2.0000      -0.396072       -10.7777 
  28   2.0000      -0.374120       -10.1803 
  29   2.0000      -0.373598       -10.1661 
  30   2.0000      -0.373429       -10.1615 
  31   2.0000      -0.373144       -10.1538 
  32   2.0000      -0.332916        -9.0591 
  33   2.0000      -0.315640        -8.5890 
  34   2.0000      -0.300292        -8.1714 
  35   2.0000      -0.300056        -8.1649 
  36   2.0000      -0.300050        -8.1648 
  37   2.0000      -0.300002        -8.1635 
  38   2.0000      -0.229522        -6.2456 
  39   2.0000      -0.222916        -6.0658 
  40   2.0000      -0.220581        -6.0023 
  41   2.0000      -0.215060        -5.8521 
  42   0.0000      -0.031167        -0.8481 
  43   0.0000      -0.030807        -0.8383 
  44   0.0000      -0.027404        -0.7457 
  45   0.0000      -0.026903        -0.7321 
  46   0.0000       0.027340         0.7440 
  47   0.0000       0.046777         1.2729 
  48   0.0000       0.059953         1.6314 
  49   0.0000       0.063632         1.7315 
  50   0.0000       0.081302         2.2123 
  51   0.0000       0.083818         2.2808 
  52   0.0000       0.092143         2.5073 
*Only the first 10 virtual orbitals were printed.

                    ********************************
                    * MULLIKEN POPULATION ANALYSIS *
                    ********************************

-----------------------
MULLIKEN ATOMIC CHARGES
-----------------------
   0 C :   -0.169665
   1 C :   -0.118359
   2 C :   -0.118195
   3 C :   -0.169906
   4 C :   -0.165703
   5 C :   -0.165968
   6 H :    0.150628
   7 H :    0.148532
   8 H :    0.148520
   9 H :    0.150629
  10 H :    0.154756
  11 H :    0.154730
  12 C :   -0.169830
  13 C :   -0.165792
  14 C :   -0.165877
  15 C :   -0.169733
  16 C :   -0.118315
  17 C :   -0.118231
  18 H :    0.150628
  19 H :    0.154737
  20 H :    0.154735
  21 H :    0.150640
  22 H :    0.148532
  23 H :    0.148509
Sum of atomic charges:   -0.0000000

--------------------------------
MULLIKEN REDUCED ORBITAL CHARGES
--------------------------------
  0 C s       :     3.132832  s :     3.132832
      pz      :     0.997508  p :     2.995296
      px      :     0.953639
      py      :     1.044149
      dz2     :     0.003959  d :     0.041537
      dxz     :     0.006626
      dyz     :     0.001977
      dx2y2   :     0.016758
      dxy     :     0.012218

  1 C s       :     3.085543  s :     3.085543
      pz      :     0.979881  p :     2.991310
      px      :     1.020496
      py      :     0.990933
      dz2     :     0.003970  d :     0.041506
      dxz     :     0.003169
      dyz     :     0.005407
      dx2y2   :     0.013342
      dxy     :     0.015618

  2 C s       :     3.085493  s :     3.085493
      pz      :     0.979887  p :     2.991197
      px      :     1.020374
      py      :     0.990936
      dz2     :     0.003970  d :     0.041506
      dxz     :     0.003169
      dyz     :     0.005407
      dx2y2   :     0.013342
      dxy     :     0.015618

  3 C s       :     3.133015  s :     3.133015
      pz      :     0.997512  p :     2.995354
      px      :     0.953637
      py      :     1.044204
      dz2     :     0.003959  d :     0.041537
      dxz     :     0.006626
      dyz     :     0.001977
      dx2y2   :     0.016758
      dxy     :     0.012218

  4 C s       :     3.128304  s :     3.128304
      pz      :     0.996922  p :     2.995871
      px      :     1.023559
      py      :     0.975391
      dz2     :     0.003939  d :     0.041528
      dxz     :     0.003144
      dyz     :     0.005503
      dx2y2   :     0.013350
      dxy     :     0.015592

  5 C s       :     3.128554  s :     3.128554
      pz      :     0.996917  p :     2.995886
      px      :     1.023559
      py      :     0.975410
      dz2     :     0.003939  d :     0.041528
      dxz     :     0.003144
      dyz     :     0.005503
      dx2y2   :     0.013350
      dxy     :     0.015592

  6 H s       :     0.849372  s :     0.849372

  7 H s       :     0.851468  s :     0.851468

  8 H s       :     0.851480  s :     0.851480

  9 H s       :     0.849371  s :     0.849371

 10 H s       :     0.845244  s :     0.845244

 11 H s       :     0.845270  s :     0.845270

 12 C s       :     3.132969  s :     3.132969
      pz      :     0.997511  p :     2.995325
      px      :     0.953638
      py      :     1.044176
      dz2     :     0.003959  d :     0.041537
      dxz     :     0.006625
      dyz     :     0.001977
      dx2y2   :     0.016757
      dxy     :     0.012218

 13 C s       :     3.128396  s :     3.128396
      pz      :     0.996919  p :     2.995868
      px      :     1.023552
      py      :     0.975397
      dz2     :     0.003939  d :     0.041528
      dxz     :     0.003144
      dyz     :     0.005503
      dx2y2   :     0.013350
      dxy     :     0.015592

 14 C s       :     3.128468  s :     3.128468
      pz      :     0.996922  p :     2.995880
      px      :     1.023563
      py      :     0.975395
      dz2     :     0.003939  d :     0.041528
      dxz     :     0.003144
      dyz     :     0.005503
      dx2y2   :     0.013350
      dxy     :     0.015592

 15 C s       :     3.132884  s :     3.132884
      pz      :     0.997504  p :     2.995312
      px      :     0.953640
      py      :     1.044168
      dz2     :     0.003959  d :     0.041537
      dxz     :     0.006626
      dyz     :     0.001977
      dx2y2   :     0.016757
      dxy     :     0.012218

 16 C s       :     3.085504  s :     3.085504
      pz      :     0.979889  p :     2.991306
      px      :     1.020483
      py      :     0.990934
      dz2     :     0.003970  d :     0.041505
      dxz     :     0.003169
      dyz     :     0.005407
      dx2y2   :     0.013342
      dxy     :     0.015618

 17 C s       :     3.085530  s :     3.085530
      pz      :     0.979880  p :     2.991196
      px      :     1.020375
      py      :     0.990940
      dz2     :     0.003970  d :     0.041505
      dxz     :     0.003169
      dyz     :     0.005407
      dx2y2   :     0.013342
      dxy     :     0.015617

 18 H s       :     0.849372  s :     0.849372

 19 H s       :     0.845263  s :     0.845263

 20 H s       :     0.845265  s :     0.845265

 21 H s       :     0.849360  s :     0.849360

 22 H s       :     0.851468  s :     0.851468

 23 H s       :     0.851491  s :     0.851491



                     *******************************
                     * LOEWDIN POPULATION ANALYSIS *
                     *******************************

----------------------
LOEWDIN ATOMIC CHARGES
----------------------
   0 C :   -0.163485
   1 C :   -0.155894
   2 C :   -0.155895
   3 C :   -0.163487
   4 C :   -0.167417
   5 C :   -0.167412
   6 H :    0.161808
   7 H :    0.163336
   8 H :    0.163336
   9 H :    0.161807
  10 H :    0.161652
  11 H :    0.161651
  12 C :   -0.163489
  13 C :   -0.167413
  14 C :   -0.167415
  15 C :   -0.163485
  16 C :   -0.155896
  17 C :   -0.155892
  18 H :    0.161811
  19 H :    0.161649
  20 H :    0.161650
  21 H :    0.161810
  22 H :    0.163336
  23 H :    0.163333

-------------------------------
LOEWDIN REDUCED ORBITAL CHARGES
-------------------------------
  0 C s       :     2.903407  s :     2.903407
      pz      :     0.985331  p :     3.178775
      px      :     1.105439
      py      :     1.088004
      dz2     :     0.006309  d :     0.081304
      dxz     :     0.012207
      dyz     :     0.002812
      dx2y2   :     0.032836
      dxy     :     0.027140

  1 C s       :     2.902922  s :     2.902922
      pz      :     0.976424  p :     3.171673
      px      :     1.093332
      py      :     1.101917
      dz2     :     0.006338  d :     0.081299
      dxz     :     0.005215
      dyz     :     0.009748
      dx2y2   :     0.028546
      dxy     :     0.031452

  2 C s       :     2.902923  s :     2.902923
      pz      :     0.976425  p :     3.171673
      px      :     1.093331
      py      :     1.101917
      dz2     :     0.006338  d :     0.081299
      dxz     :     0.005215
      dyz     :     0.009748
      dx2y2   :     0.028547
      dxy     :     0.031451

  3 C s       :     2.903407  s :     2.903407
      pz      :     0.985333  p :     3.178776
      px      :     1.105439
      py      :     1.088004
      dz2     :     0.006309  d :     0.081304
      dxz     :     0.012207
      dyz     :     0.002812
      dx2y2   :     0.032836
      dxy     :     0.027140

  4 C s       :     2.903234  s :     2.903234
      pz      :     0.989543  p :     3.182847
      px      :     1.092540
      py      :     1.100765
      dz2     :     0.006270  d :     0.081335
      dxz     :     0.005176
      dyz     :     0.009973
      dx2y2   :     0.028574
      dxy     :     0.031341

  5 C s       :     2.903235  s :     2.903235
      pz      :     0.989539  p :     3.182842
      px      :     1.092539
      py      :     1.100764
      dz2     :     0.006270  d :     0.081335
      dxz     :     0.005176
      dyz     :     0.009973
      dx2y2   :     0.028574
      dxy     :     0.031341

  6 H s       :     0.838192  s :     0.838192

  7 H s       :     0.836664  s :     0.836664

  8 H s       :     0.836664  s :     0.836664

  9 H s       :     0.838193  s :     0.838193

 10 H s       :     0.838348  s :     0.838348

 11 H s       :     0.838349  s :     0.838349

 12 C s       :     2.903410  s :     2.903410
      pz      :     0.985332  p :     3.178776
      px      :     1.105438
      py      :     1.088005
      dz2     :     0.006309  d :     0.081303
      dxz     :     0.012206
      dyz     :     0.002813
      dx2y2   :     0.032834
      dxy     :     0.027141

 13 C s       :     2.903234  s :     2.903234
      pz      :     0.989542  p :     3.182844
      px      :     1.092537
      py      :     1.100765
      dz2     :     0.006270  d :     0.081335
      dxz     :     0.005176
      dyz     :     0.009974
      dx2y2   :     0.028574
      dxy     :     0.031342

 14 C s       :     2.903233  s :     2.903233
      pz      :     0.989544  p :     3.182847
      px      :     1.092538
      py      :     1.100765
      dz2     :     0.006270  d :     0.081335
      dxz     :     0.005176
      dyz     :     0.009974
      dx2y2   :     0.028574
      dxy     :     0.031342

 15 C s       :     2.903408  s :     2.903408
      pz      :     0.985327  p :     3.178773
      px      :     1.105440
      py      :     1.088006
      dz2     :     0.006309  d :     0.081304
      dxz     :     0.012206
      dyz     :     0.002813
      dx2y2   :     0.032835
      dxy     :     0.027141

 16 C s       :     2.902924  s :     2.902924
      pz      :     0.976427  p :     3.171674
      px      :     1.093334
      py      :     1.101914
      dz2     :     0.006338  d :     0.081298
      dxz     :     0.005215
      dyz     :     0.009748
      dx2y2   :     0.028547
      dxy     :     0.031451

 17 C s       :     2.902925  s :     2.902925
      pz      :     0.976424  p :     3.171669
      px      :     1.093331
      py      :     1.101915
      dz2     :     0.006338  d :     0.081298
      dxz     :     0.005215
      dyz     :     0.009748
      dx2y2   :     0.028547
      dxy     :     0.031450

 18 H s       :     0.838189  s :     0.838189

 19 H s       :     0.838351  s :     0.838351

 20 H s       :     0.838350  s :     0.838350

 21 H s       :     0.838190  s :     0.838190

 22 H s       :     0.836664  s :     0.836664

 23 H s       :     0.836667  s :     0.836667



                      *****************************
                      * MAYER POPULATION ANALYSIS *
                      *****************************

  NA   - Mulliken gross atomic population
  ZA   - Total nuclear charge
  QA   - Mulliken gross atomic charge
  VA   - Mayer's total valence
  BVA  - Mayer's bonded valence
  FA   - Mayer's free valence

  ATOM       NA         ZA         QA         VA         BVA        FA
  0 C      6.1697     6.0000    -0.1697     4.0145     4.0145     0.0000
  1 C      6.1184     6.0000    -0.1184     4.0114     4.0114     0.0000
  2 C      6.1182     6.0000    -0.1182     4.0112     4.0112     0.0000
  3 C      6.1699     6.0000    -0.1699     4.0147     4.0147     0.0000
  4 C      6.1657     6.0000    -0.1657     3.9893     3.9893     0.0000
  5 C      6.1660     6.0000    -0.1660     3.9895     3.9895     0.0000
  6 H      0.8494     1.0000     0.1506     0.9450     0.9450    -0.0000
  7 H      0.8515     1.0000     0.1485     0.9481     0.9481     0.0000
  8 H      0.8515     1.0000     0.1485     0.9481     0.9481     0.0000
  9 H      0.8494     1.0000     0.1506     0.9450     0.9450     0.0000
 10 H      0.8452     1.0000     0.1548     0.9421     0.9421    -0.0000
 11 H      0.8453     1.0000     0.1547     0.9421     0.9421    -0.0000
 12 C      6.1698     6.0000    -0.1698     4.0146     4.0146    -0.0000
 13 C      6.1658     6.0000    -0.1658     3.9893     3.9893    -0.0000
 14 C      6.1659     6.0000    -0.1659     3.9894     3.9894    -0.0000
 15 C      6.1697     6.0000    -0.1697     4.0146     4.0146    -0.0000
 16 C      6.1183     6.0000    -0.1183     4.0114     4.0114    -0.0000
 17 C      6.1182     6.0000    -0.1182     4.0113     4.0113    -0.0000
 18 H      0.8494     1.0000     0.1506     0.9450     0.9450    -0.0000
 19 H      0.8453     1.0000     0.1547     0.9421     0.9421    -0.0000
 20 H      0.8453     1.0000     0.1547     0.9421     0.9421    -0.0000
 21 H      0.8494     1.0000     0.1506     0.9450     0.9450    -0.0000
 22 H      0.8515     1.0000     0.1485     0.9481     0.9481    -0.0000
 23 H      0.8515     1.0000     0.1485     0.9481     0.9481    -0.0000

  Mayer bond orders larger than 0.100000
B(  0-C ,  1-C ) :   1.5008 B(  0-C ,  5-C ) :   1.5021 B(  0-C ,  6-H ) :   0.9136 
B(  1-C ,  2-C ) :   1.5319 B(  1-C ,  7-H ) :   0.9005 B(  2-C ,  3-C ) :   1.5007 
B(  2-C ,  8-H ) :   0.9005 B(  3-C ,  4-C ) :   1.5022 B(  3-C ,  9-H ) :   0.9136 
B(  4-C ,  5-C ) :   1.4984 B(  4-C , 10-H ) :   0.9127 B(  5-C , 11-H ) :   0.9127 
B( 12-C , 13-C ) :   1.5021 B( 12-C , 17-C ) :   1.5007 B( 12-C , 18-H ) :   0.9136 
B( 13-C , 14-C ) :   1.4984 B( 13-C , 19-H ) :   0.9127 B( 14-C , 15-C ) :   1.5021 
B( 14-C , 20-H ) :   0.9127 B( 15-C , 16-C ) :   1.5008 B( 15-C , 21-H ) :   0.9136 
B( 16-C , 17-C ) :   1.5319 B( 16-C , 22-H ) :   0.9005 B( 17-C , 23-H ) :   0.9005 


-------
TIMINGS
-------

Total SCF time: 0 days 0 hours 0 min 3 sec 

Total time                  ....       3.135 sec
Sum of individual times     ....       2.529 sec  ( 80.7%)

SCF preparation             ....       0.112 sec  (  3.6%)
Fock matrix formation       ....       2.277 sec  ( 72.6%)
  Startup                   ....       0.003 sec  (  0.1% of F)
  Split-RI-J                ....       0.743 sec  ( 32.6% of F)
  XC integration            ....       2.056 sec  ( 90.3% of F)
    Basis function eval.    ....       0.556 sec  ( 27.0% of XC)
    Density eval.           ....       0.522 sec  ( 25.4% of XC)
    XC-Functional eval.     ....       0.075 sec  (  3.7% of XC)
    XC-Potential eval.      ....       0.636 sec  ( 30.9% of XC)
Diagonalization             ....       0.000 sec  (  0.0%)
Density matrix formation    ....       0.010 sec  (  0.3%)
Total Energy calculation    ....       0.004 sec  (  0.1%)
Population analysis         ....       0.033 sec  (  1.0%)
Orbital Transformation      ....       0.020 sec  (  0.7%)
Orbital Orthonormalization  ....       0.000 sec  (  0.0%)
DIIS solution               ....       0.025 sec  (  0.8%)
SOSCF solution              ....       0.048 sec  (  1.5%)
Finished LeanSCF after   3.2 sec

Maximum memory used throughout the entire LEANSCF-calculation: 20.6 MB


           ************************************************************
           *        Program running with 4 parallel MPI-processes     *
           *              working on a common directory               *
           ************************************************************

------------------------------------------------------------------------------
                         ORCA PROPERTY INTEGRAL CALCULATIONS
------------------------------------------------------------------------------

GBWName                                   ... dimero_PD.gbw
Number of atoms                           ...     24
Number of basis functions                 ...    264
Max core memory                           ...   2500 MB

Dipole integrals                          ... YES
Quadrupole integrals                      ...  NO
Linear momentum integrals                 ...  NO
Angular momentum integrals                ...  NO
Higher moments length integrals           ...  NO
Higher moments velocity integrals         ...  NO
Kinetic energy integrals                  ...  NO
GIAO right hand sides                     ...  NO
GIAO dipole derivative integrals          ...  NO
SOC integrals                             ...  NO
EPR diamagnetic integrals (GIAO)          ...  NO
EPR gauge integrals                       ...  NO
Field gradient integrals                  ...  NO (   0 nuclei)
Spin-dipole/Fermi contact integrals       ...  NO (   0 nuclei)
Contact density integrals                 ...  NO (   0 nuclei)
Nucleus-orbit integrals                   ...  NO (   0 nuclei)
Geometric perturbations                   ... YES (  24 nuclei)

Choice of electric origin   ... Center of mass
Position of electric origin ... (  0.0000,  0.0000,  0.0000) 
Choice of magnetic origin   ... GIAO
Position of magnetic origin ... (  0.0000,  0.0000,  0.0000) 

Calculating integrals                     ... Electric Dipole (Length)     done (  0.0 sec)
Calculating integrals                     ... Geometrical perturbation right hand sides

-----------------------
GEOMETRIC PERTURBATIONS (24 nuclei)
-----------------------

MaxCore                            ...   2500 MB
Number of batches                  ...      1

BATCH   0: Atoms    0 -   23 ( 72 perturbations)
   => H(core) and overlap derivative integrals     ... done (     0.3 sec)
   => Making and storing internal U-coefficients   ... done (     0.0 sec)
   => RI-J derivative integrals                    ... done (     3.3 sec)
   => RI-J response operators                      ... done (     1.1 sec)
   => XC derivative integrals                      ... done (    69.7 sec)
   => XC response operators                        ... done (    22.0 sec)
   => Completing and storing right hand sides      ... done (     0.0 sec)
   => Total time for right hand sides =  96.9 sec

  geometrical perturbations done ( 96.9 sec)

Property integrals calculated in  96.9 sec

Maximum memory used throughout the entire PROPINT-calculation: 150.7 MB


-------------------------------------------------------------------------------
                          DFT DISPERSION CORRECTION                            
                                                                               
                              DFTD3 V3.1  Rev 1                                
                          USING Becke-Johnson damping                          
-------------------------------------------------------------------------------
The B97-3c composite method is recognized
Using three-body term ABC
Active option DFTDOPT                   ...         4   

molecular C6(AA) [au] = 6629.386906 


            DFT-D V3
 parameters
 s6 scaling factor         :     1.0000 
 a1 scaling factor         :     0.3700 
 s8 scaling factor         :     1.5000 
 a2 scaling factor         :     4.1000 
 Damping factor alpha9(ATM):    16.0000 
 ad hoc parameters k1-k3   :    16.0000     1.3333    -4.0000 

 Edisp/kcal,au: -37.508482193073  -0.059773564771 
 E6   /kcal   : -19.094480051 
 E8   /kcal   : -18.567087851 
 E6(ABC)      :   0.153085709 
 % E8         :  49.501037541 
 % E6(ABC)    :  -0.408136241 

-------------------------   ----------------
Dispersion correction           -0.059773565
-------------------------   ----------------

------------------   -----------------
SRB correction            -0.079779457
------------------   -----------------

-------------------------   --------------------
FINAL SINGLE POINT ENERGY      -464.265320150999
-------------------------   --------------------

                                *** OPTIMIZATION RUN DONE ***



           ************************************************************
           *        Program running with 4 parallel MPI-processes     *
           *              working on a common directory               *
           ************************************************************
------------------------------------------------------------------------------
                            ORCA SCF RESPONSE CALCULATION
------------------------------------------------------------------------------

GBWName                                 ... dimero_PD.gbw
Number of atoms                         ...     24
Number of basis functions               ...    264
Max core memory                         ...   2500 MB

Electric field perturbation             ...  NO
Quadrupolar field perturbation          ...  NO
Magnetic field perturbation (no GIAO)   ...  NO
Magnetic field perturbation (with GIAO) ...  NO
Linear momentum (velocity) perturbation ...  NO
Spin-orbit coupling perturbation        ...  NO
Choice of electric origin               ... Center of mass
Position of electric origin             ...     0.000001     0.000000     0.000001
Choice of magnetic origin               ... GIAO
Position of magnetic origin             ...     0.000000     0.000000     0.000000
Nuclear geometric perturbations         ... YES (  72 perturbations)
Nucleus-orbit perturbations             ...  NO (   0 perturbations)
Spin-dipole/Fermi contact perturbations ...  NO (   0 perturbations)

Total number of real perturbations      ...     72
Total number of imaginary perturbations ...      0
Total number of triplet perturbations   ...      0
Total number of SOC perturbations       ...      0

Using XC Grid                  ... (dimero_PD.grid_cpscf.tmp) 
Recalculating density on grid  ... (dimero_PD.grho_cpscf0.tmp) done
Calculating the xc-kernel      ... (dimero_PD.fxc_cpscf0.tmp) done

                                **********************
                                * REAL PERTURBATIONS *
                                **********************



-------------------
SHARK CP-SCF DRIVER
-------------------

Dimension of the orbital basis          ...    264
Dimension of the CPSCF-problem          ...   9324
Number of operators                     ...      1
Max. number of iterations               ...    128
Convergence Tolerance                   ... 1.0e-04
Number of perturbations                 ...     72
Perturbation type                       ... REAL

----------------------------
POPLE LINEAR EQUATION SOLVER
----------------------------

  ITERATION   0:   ||err||_max =   5.7822e-01 (   8.0 sec   0/ 72 done)
  ITERATION   1:   ||err||_max =   6.9067e-02 (   8.7 sec   0/ 72 done)
  ITERATION   2:   ||err||_max =   2.0119e-02 (   9.7 sec   0/ 72 done)
  ITERATION   3:   ||err||_max =   5.6466e-03 (   9.8 sec   0/ 72 done)
  ITERATION   4:   ||err||_max =   2.2840e-03 (   9.7 sec   0/ 72 done)
  ITERATION   5:   ||err||_max =   5.1368e-04 (   9.7 sec   0/ 72 done)
  ITERATION   6:   ||err||_max =   1.9196e-04 (  10.1 sec  40/ 72 done)
  ITERATION   7:   ||err||_max =   7.2444e-05 (   4.4 sec  72/ 72 done)

CP-SCF equations solved in  70.0 sec
Response densities calculated in   0.0 sec

Maximum memory used throughout the entire SCFRESP-calculation: 115.5 MB


           ************************************************************
           *        Program running with 4 parallel MPI-processes     *
           *              working on a common directory               *
           ************************************************************

------------------------------------------------------------------------------
                              ORCA PROPERTY CALCULATIONS
------------------------------------------------------------------------------

GBWName                                 ... dimero_PD.gbw
Number of atoms                         ...     24
Number of basis functions               ...    264
Max core memory                         ...   2500 MB

Electric properties:
Dipole moment                           ... YES
Quadrupole moment                       ...  NO
Static polarizability (Dipole/Dipole)   ...  NO
Static polarizability (Dipole/Quad.)    ...  NO
Static polarizability (Quad./Quad.)     ...  NO
Static polarizability (Velocity)        ...  NO
Static hyperpolarizability              ...  NO

Atomic electric properties:
Dipole moment                           ...  NO
Quadrupole moment                       ...  NO
Static polarizability                   ...  NO

Choice of electric origin               ... Center of mass
Position of electric origin             ...     0.000001     0.000000     0.000001

General magnetic properties:
Magnetizability                         ...  NO

EPR properties:
g-Tensor (aka g-matrix)                 ...  NO
Zero-Field splitting spin-orbit         ...  NO
Zero-field splitting spin-spin          ...  NO
Hyperfine couplings                     ...  NO (   0 nuclei)
Quadrupole couplings                    ...  NO (   0 nuclei)
Contact density                         ...  NO (   0 nuclei)

NMR properties:
Chemical shifts                         ...  NO (   0 nuclei)
Spin-rotation constants                 ...  NO (   0 nuclei)
Spin-spin couplings                     ...  NO (   0 nuclei,    0 pairs)

Choice of magnetic origin               ... GIAO
Position of magnetic origin             ...     0.000000     0.000000     0.000000

Properties with geometric perturbations:
SCF Hessian                             ... YES
IR spectrum                             ... YES
VCD spectrum                            ...  NO
X-ray spectroscopy properties:
SCF XES/XAS/RIXS spectra                ...  NO

SCF SOC stabilization energy            ...  NO
Diagonal Born-Oppenheimer correction    ...  NO

-------------
DIPOLE MOMENT
-------------

Method             : SCF
Type of density    : Electron Density
Multiplicity       :   1
Irrep              :   0
Energy             :  -464.1257671290287590 Eh
Basis              : AO
                                X                 Y                 Z
Electronic contribution:      0.000005887       0.000000076       0.000004822
Nuclear contribution   :     -0.000013768      -0.000003385      -0.000007832
                        -----------------------------------------
Total Dipole Moment    :     -0.000007882      -0.000003309      -0.000003010
                        -----------------------------------------
Magnitude (a.u.)       :      0.000009062
Magnitude (Debye)      :      0.000023035



--------------------
Rotational spectrum 
--------------------
 
Rotational constants in cm-1:             0.053698             0.021572             0.020591 
Rotational constants in MHz :          1609.822819           646.708282           617.314358 

Dipole components along the rotational axes: 
x,y,z [a.u.] :    -0.000007     0.000003    -0.000005 
x,y,z [Debye]:    -0.000017     0.000008    -0.000013 

 

Dipole moment calculation done in   0.0 sec 

-----------
SCF HESSIAN
-----------

Occupied/Occupied contributions to the Hessian:
   => Occupied/Occupied contributions              ... done (  0.0 sec)
Perturbed density contributions to the Hessian:
   => Perturbed density contributions              ... done (  0.0 sec)
Explicit contributions to the Hessian:
   => Nuclear repulsion Hessian                    ... done (  0.0 sec)
   => HCore and overlap Hessian                    ... done ( 11.8 sec)
   => RI-J Hessian                                 ... done (  5.5 sec)
   => XC-Hessian                                   ... done ( 29.2 sec)
   => Van der Waals-Hessian                        ... done (  1.4 sec)
   => GCP-Hessian                                  ... done (  0.0 sec)
   => Explicit contributions done
Dipole derivatives                                 ... done (  0.0 sec)
Mass weighting the Hessian           ... done
Calculating normal modes             ... done
Scaling frequencies                  ... done

-----------------------
VIBRATIONAL FREQUENCIES
-----------------------

Scaling factor for frequencies =  1.000000000  (already applied!)

     0:       0.00 cm**-1
     1:       0.00 cm**-1
     2:       0.00 cm**-1
     3:       0.00 cm**-1
     4:       0.00 cm**-1
     5:       0.00 cm**-1
     6:     -16.06 cm**-1  ***imaginary mode***
     7:      -7.39 cm**-1  ***imaginary mode***
     8:      27.36 cm**-1
     9:      35.36 cm**-1
    10:      54.30 cm**-1
    11:      55.34 cm**-1
    12:     395.07 cm**-1
    13:     397.08 cm**-1
    14:     398.56 cm**-1
    15:     398.96 cm**-1
    16:     624.14 cm**-1
    17:     624.59 cm**-1
    18:     624.76 cm**-1
    19:     624.92 cm**-1
    20:     656.24 cm**-1
    21:     661.89 cm**-1
    22:     695.31 cm**-1
    23:     696.78 cm**-1
    24:     829.64 cm**-1
    25:     831.17 cm**-1
    26:     831.71 cm**-1
    27:     836.85 cm**-1
    28:     898.22 cm**-1
    29:     898.54 cm**-1
    30:     904.48 cm**-1
    31:     906.82 cm**-1
    32:     971.90 cm**-1
    33:     972.85 cm**-1
    34:    1009.43 cm**-1
    35:    1009.92 cm**-1
    36:    1031.26 cm**-1
    37:    1031.33 cm**-1
    38:    1053.04 cm**-1
    39:    1053.77 cm**-1
    40:    1054.06 cm**-1
    41:    1054.32 cm**-1
    42:    1173.92 cm**-1
    43:    1174.22 cm**-1
    44:    1192.23 cm**-1
    45:    1192.96 cm**-1
    46:    1193.71 cm**-1
    47:    1193.76 cm**-1
    48:    1353.61 cm**-1
    49:    1354.44 cm**-1
    50:    1376.75 cm**-1
    51:    1376.84 cm**-1
    52:    1508.25 cm**-1
    53:    1508.64 cm**-1
    54:    1508.74 cm**-1
    55:    1509.06 cm**-1
    56:    1625.64 cm**-1
    57:    1625.94 cm**-1
    58:    1626.24 cm**-1
    59:    1626.66 cm**-1
    60:    3114.84 cm**-1
    61:    3114.93 cm**-1
    62:    3120.78 cm**-1
    63:    3121.20 cm**-1
    64:    3124.01 cm**-1
    65:    3124.49 cm**-1
    66:    3136.17 cm**-1
    67:    3136.93 cm**-1
    68:    3137.09 cm**-1
    69:    3137.26 cm**-1
    70:    3148.65 cm**-1
    71:    3148.96 cm**-1


------------
NORMAL MODES
------------

These modes are the Cartesian displacements weighted by the diagonal matrix
M(i,i)=1/sqrt(m[i]) where m[i] is the mass of the displaced atom
Thus, these vectors are normalized but *not* orthogonal

                  0          1          2          3          4          5    
      0       0.000000   0.000000   0.000000   0.000000   0.000000   0.000000
      1       0.000000   0.000000   0.000000   0.000000   0.000000   0.000000
      2       0.000000   0.000000   0.000000   0.000000   0.000000   0.000000
      3       0.000000   0.000000   0.000000   0.000000   0.000000   0.000000
      4       0.000000   0.000000   0.000000   0.000000   0.000000   0.000000
      5       0.000000   0.000000   0.000000   0.000000   0.000000   0.000000
      6       0.000000   0.000000   0.000000   0.000000   0.000000   0.000000
      7       0.000000   0.000000   0.000000   0.000000   0.000000   0.000000
      8       0.000000   0.000000   0.000000   0.000000   0.000000   0.000000
      9       0.000000   0.000000   0.000000   0.000000   0.000000   0.000000
     10       0.000000   0.000000   0.000000   0.000000   0.000000   0.000000
     11       0.000000   0.000000   0.000000   0.000000   0.000000   0.000000
     12       0.000000   0.000000   0.000000   0.000000   0.000000   0.000000
     13       0.000000   0.000000   0.000000   0.000000   0.000000   0.000000
     14       0.000000   0.000000   0.000000   0.000000   0.000000   0.000000
     15       0.000000   0.000000   0.000000   0.000000   0.000000   0.000000
     16       0.000000   0.000000   0.000000   0.000000   0.000000   0.000000
     17       0.000000   0.000000   0.000000   0.000000   0.000000   0.000000
     18       0.000000   0.000000   0.000000   0.000000   0.000000   0.000000
     19       0.000000   0.000000   0.000000   0.000000   0.000000   0.000000
     20       0.000000   0.000000   0.000000   0.000000   0.000000   0.000000
     21       0.000000   0.000000   0.000000   0.000000   0.000000   0.000000
     22       0.000000   0.000000   0.000000   0.000000   0.000000   0.000000
     23       0.000000   0.000000   0.000000   0.000000   0.000000   0.000000
     24       0.000000   0.000000   0.000000   0.000000   0.000000   0.000000
     25       0.000000   0.000000   0.000000   0.000000   0.000000   0.000000
     26       0.000000   0.000000   0.000000   0.000000   0.000000   0.000000
     27       0.000000   0.000000   0.000000   0.000000   0.000000   0.000000
     28       0.000000   0.000000   0.000000   0.000000   0.000000   0.000000
     29       0.000000   0.000000   0.000000   0.000000   0.000000   0.000000
     30       0.000000   0.000000   0.000000   0.000000   0.000000   0.000000
     31       0.000000   0.000000   0.000000   0.000000   0.000000   0.000000
     32       0.000000   0.000000   0.000000   0.000000   0.000000   0.000000
     33       0.000000   0.000000   0.000000   0.000000   0.000000   0.000000
     34       0.000000   0.000000   0.000000   0.000000   0.000000   0.000000
     35       0.000000   0.000000   0.000000   0.000000   0.000000   0.000000
     36       0.000000   0.000000   0.000000   0.000000   0.000000   0.000000
     37       0.000000   0.000000   0.000000   0.000000   0.000000   0.000000
     38       0.000000   0.000000   0.000000   0.000000   0.000000   0.000000
     39       0.000000   0.000000   0.000000   0.000000   0.000000   0.000000
     40       0.000000   0.000000   0.000000   0.000000   0.000000   0.000000
     41       0.000000   0.000000   0.000000   0.000000   0.000000   0.000000
     42       0.000000   0.000000   0.000000   0.000000   0.000000   0.000000
     43       0.000000   0.000000   0.000000   0.000000   0.000000   0.000000
     44       0.000000   0.000000   0.000000   0.000000   0.000000   0.000000
     45       0.000000   0.000000   0.000000   0.000000   0.000000   0.000000
     46       0.000000   0.000000   0.000000   0.000000   0.000000   0.000000
     47       0.000000   0.000000   0.000000   0.000000   0.000000   0.000000
     48       0.000000   0.000000   0.000000   0.000000   0.000000   0.000000
     49       0.000000   0.000000   0.000000   0.000000   0.000000   0.000000
     50       0.000000   0.000000   0.000000   0.000000   0.000000   0.000000
     51       0.000000   0.000000   0.000000   0.000000   0.000000   0.000000
     52       0.000000   0.000000   0.000000   0.000000   0.000000   0.000000
     53       0.000000   0.000000   0.000000   0.000000   0.000000   0.000000
     54       0.000000   0.000000   0.000000   0.000000   0.000000   0.000000
     55       0.000000   0.000000   0.000000   0.000000   0.000000   0.000000
     56       0.000000   0.000000   0.000000   0.000000   0.000000   0.000000
     57       0.000000   0.000000   0.000000   0.000000   0.000000   0.000000
     58       0.000000   0.000000   0.000000   0.000000   0.000000   0.000000
     59       0.000000   0.000000   0.000000   0.000000   0.000000   0.000000
     60       0.000000   0.000000   0.000000   0.000000   0.000000   0.000000
     61       0.000000   0.000000   0.000000   0.000000   0.000000   0.000000
     62       0.000000   0.000000   0.000000   0.000000   0.000000   0.000000
     63       0.000000   0.000000   0.000000   0.000000   0.000000   0.000000
     64       0.000000   0.000000   0.000000   0.000000   0.000000   0.000000
     65       0.000000   0.000000   0.000000   0.000000   0.000000   0.000000
     66       0.000000   0.000000   0.000000   0.000000   0.000000   0.000000
     67       0.000000   0.000000   0.000000   0.000000   0.000000   0.000000
     68       0.000000   0.000000   0.000000   0.000000   0.000000   0.000000
     69       0.000000   0.000000   0.000000   0.000000   0.000000   0.000000
     70       0.000000   0.000000   0.000000   0.000000   0.000000   0.000000
     71       0.000000   0.000000   0.000000   0.000000   0.000000   0.000000
                  6          7          8          9         10         11    
      0      -0.039264   0.141408   0.000355   0.105311  -0.002750  -0.002534
      1       0.079092  -0.000014   0.000105  -0.000150   0.000106  -0.000584
      2      -0.175133  -0.004052   0.000187   0.089115  -0.198414   0.138205
      3      -0.019830   0.070758   0.000396   0.105060  -0.001131  -0.002329
      4       0.112087  -0.122113  -0.000029  -0.000035   0.002045  -0.000530
      5      -0.087821  -0.001897   0.171878  -0.037128  -0.098829   0.262544
      6       0.019840  -0.070770   0.000444   0.105049   0.001082  -0.002332
      7       0.112093  -0.122112   0.000206   0.000007   0.002051   0.000499
      8       0.087649   0.001951   0.172071  -0.037064   0.098013   0.262860
      9       0.039274  -0.141418   0.000450   0.105289   0.002700  -0.002541
     10       0.079100  -0.000014  -0.000009   0.000141   0.000114   0.000561
     11       0.175177   0.004039   0.000578   0.089238   0.198011   0.138848
     12       0.019714  -0.070828   0.000059   0.105945   0.001436  -0.002945
     13       0.045248   0.122338  -0.000134   0.000176  -0.002378  -0.000228
     14       0.086979   0.002235  -0.171820   0.216244   0.099740   0.015867
     15      -0.019705   0.070818   0.000018   0.105950  -0.001485  -0.002937
     16       0.045235   0.122337   0.000148  -0.000167  -0.002394   0.000212
     17      -0.086724  -0.002313  -0.172014   0.216182  -0.099743   0.015537
     18      -0.069917   0.251311   0.000128   0.105536  -0.005274  -0.002399
     19       0.079273  -0.000084   0.000161  -0.000185   0.000160  -0.000546
     20      -0.314220  -0.006352  -0.000727   0.091014  -0.356466   0.141013
     21      -0.034899   0.125921   0.000366   0.105124  -0.002005  -0.002649
     22       0.138702  -0.217759  -0.000752   0.000260   0.004217  -0.001130
     23      -0.159430  -0.002509   0.308802  -0.137994  -0.179133   0.367234
     24       0.034911  -0.125933   0.000474   0.105087   0.001959  -0.002638
     25       0.138693  -0.217758   0.000998  -0.000306   0.004204   0.001099
     26       0.159091   0.002616   0.309150  -0.137877   0.177981   0.367806
     27       0.069927  -0.251319   0.000318   0.105483   0.005224  -0.002396
     28       0.079243  -0.000086  -0.000065   0.000176   0.000124   0.000523
     29       0.314261   0.006339  -0.000035   0.091238   0.356050   0.142171
     30       0.035077  -0.126126   0.000135   0.105893   0.002466  -0.002790
     31       0.018593   0.218078  -0.000051   0.000101  -0.004359  -0.000395
     32       0.155597   0.003526  -0.306823   0.318156   0.178448  -0.081030
     33      -0.035067   0.126116   0.000050   0.105913  -0.002516  -0.002785
     34       0.018582   0.218075  -0.000008  -0.000071  -0.004372   0.000376
     35      -0.155176  -0.003656  -0.307170   0.318048  -0.178134  -0.081614
     36      -0.038989  -0.141481  -0.000168  -0.105310   0.002816   0.002549
     37      -0.079099  -0.000156  -0.000103  -0.000139   0.000256  -0.000562
     38      -0.174784   0.003744   0.000015  -0.089094   0.198718  -0.138151
     39      -0.019572  -0.070853  -0.000524  -0.105943   0.001519   0.002939
     40      -0.045482   0.122254  -0.000194  -0.000163  -0.002310   0.000226
     41      -0.086558   0.002104  -0.173071  -0.214911   0.100057  -0.015729
     42       0.019560   0.070863  -0.000523  -0.105936  -0.001468   0.002930
     43      -0.045482   0.122254   0.000092   0.000179  -0.002310  -0.000213
     44       0.086763  -0.002139  -0.173053  -0.214993  -0.099740  -0.016105
     45       0.038978   0.141491  -0.000164  -0.105294  -0.002766   0.002528
     46      -0.079095  -0.000156   0.000008   0.000148   0.000250   0.000586
     47       0.174750  -0.003731   0.000048  -0.089261  -0.198323  -0.138901
     48       0.019689   0.070804  -0.000150  -0.105056  -0.001117   0.002330
     49      -0.111846  -0.122312  -0.000162   0.000022   0.002248   0.000531
     50       0.087392  -0.001741   0.172419   0.035795  -0.098321  -0.262674
     51      -0.019696  -0.070793  -0.000155  -0.105066   0.001164   0.002342
     52      -0.111851  -0.122312   0.000073  -0.000020   0.002255  -0.000498
     53      -0.087689   0.001800   0.172404   0.035877   0.098829  -0.262302
     54      -0.069416  -0.251439  -0.000359  -0.105531   0.005390   0.002424
     55      -0.079280  -0.000226  -0.000160  -0.000174   0.000310  -0.000524
     56      -0.313558   0.005799  -0.000766  -0.090971   0.357012  -0.140916
     57      -0.034821  -0.126175  -0.000467  -0.105899   0.002575   0.002788
     58      -0.019022   0.218041  -0.000075  -0.000075  -0.004335   0.000387
     59      -0.154839   0.003283  -0.308796  -0.315779   0.178687   0.081280
     60       0.034812   0.126186  -0.000469  -0.105889  -0.002527   0.002773
     61      -0.019019   0.218042  -0.000026   0.000100  -0.004337  -0.000387
     62       0.155238  -0.003354  -0.308766  -0.315929  -0.178442   0.080604
     63       0.069407   0.251450  -0.000349  -0.105500  -0.005340   0.002384
     64      -0.079257  -0.000226   0.000065   0.000184   0.000282   0.000547
     65       0.313531  -0.005786  -0.000711  -0.091272  -0.356615  -0.142263
     66       0.034644   0.125990  -0.000157  -0.105109  -0.002016   0.002645
     67      -0.138261  -0.218007  -0.000921  -0.000279   0.004457   0.001136
     68       0.158653  -0.002234   0.310060   0.135596  -0.178528  -0.367469
     69      -0.034660  -0.125978  -0.000133  -0.105103   0.002072   0.002640
     70      -0.138253  -0.218008   0.000827   0.000268   0.004447  -0.001085
     71      -0.159158   0.002331   0.310038   0.135750   0.179142  -0.366803
                 12         13         14         15         16         17    
      0      -0.000563  -0.000214   0.000070   0.000039  -0.109152   0.000305
      1       0.000049   0.000566  -0.000148   0.000190   0.000365   0.252873
      2       0.001790  -0.179602  -0.000738  -0.178879  -0.000813   0.000849
      3      -0.000116  -0.000331  -0.000081  -0.000074  -0.163147  -0.156628
      4      -0.000257   0.000320  -0.000483   0.000195  -0.157579   0.018898
      5       0.154324   0.089886  -0.154229   0.087754  -0.000550  -0.000807
      6       0.000114  -0.000330   0.000084  -0.000074   0.162921  -0.157031
      7      -0.000275  -0.000319  -0.000466  -0.000201  -0.157607  -0.018506
      8      -0.154206   0.090102   0.153582   0.088856   0.000550  -0.000843
      9       0.000566  -0.000219  -0.000074   0.000034   0.109155   0.000034
     10       0.000054  -0.000563  -0.000152  -0.000192   0.000000  -0.252872
     11      -0.002031  -0.179594   0.002057  -0.178863   0.000805   0.000881
     12       0.000786   0.000653  -0.000238   0.000057   0.162828   0.156489
     13       0.000353  -0.000045  -0.000227   0.000074   0.157392  -0.018648
     14       0.157576   0.089945  -0.158976   0.088885  -0.001434  -0.000719
     15      -0.000780   0.000653   0.000232   0.000058  -0.162598   0.156892
     16       0.000325   0.000040  -0.000197  -0.000082   0.157421   0.018258
     17      -0.157457   0.090177   0.158315   0.090023   0.001426  -0.000689
     18       0.000156  -0.001510   0.000427  -0.000616   0.160715   0.000388
     19       0.000106   0.000782  -0.000123   0.000274   0.000180   0.252991
     20      -0.001332  -0.369319   0.003639  -0.365175   0.000240   0.003773
     21      -0.000347   0.000145  -0.000014  -0.000472  -0.230859  -0.040408
     22      -0.000886  -0.000997   0.000329   0.000280  -0.040649  -0.182875
     23       0.323514   0.182341  -0.320127   0.185408   0.001812   0.003020
     24       0.000326   0.000165   0.000038  -0.000451   0.230802  -0.040981
     25      -0.000890   0.001011   0.000335  -0.000269  -0.040382   0.182975
     26      -0.323267   0.182796   0.318752   0.187690  -0.001780   0.003012
     27      -0.000202  -0.001512  -0.000377  -0.000624  -0.160705   0.000795
     28       0.000110  -0.000728  -0.000126  -0.000225  -0.000188  -0.252990
     29       0.000847  -0.369316  -0.000958  -0.365179  -0.000182   0.003859
     30       0.001272   0.000097  -0.000363  -0.000224   0.230301   0.039474
     31      -0.000666   0.000832   0.000284   0.000400   0.040707   0.183965
     32       0.311774   0.181065  -0.314936   0.180462  -0.002835   0.001042
     33      -0.001270   0.000106   0.000363  -0.000213  -0.230240   0.040043
     34      -0.000697  -0.000823   0.000318  -0.000392   0.040447  -0.184063
     35      -0.311528   0.181515   0.313593   0.182711   0.002873   0.001059
     36       0.000566  -0.000207   0.000075  -0.000046   0.109139   0.000108
     37       0.000047  -0.000569   0.000146   0.000199  -0.000094  -0.254522
     38      -0.002016  -0.178831  -0.002030   0.179632   0.000810   0.000866
     39       0.000775   0.000641   0.000229  -0.000048   0.162870   0.157619
     40       0.000342  -0.000039   0.000216  -0.000081   0.157373  -0.018666
     41       0.157361   0.089587   0.159167  -0.089275  -0.001412  -0.000703
     42      -0.000778   0.000645  -0.000232  -0.000053  -0.162530   0.157804
     43       0.000339   0.000042   0.000213   0.000079   0.157414   0.018484
     44      -0.157258   0.089760  -0.158541  -0.090392   0.001420  -0.000707
     45      -0.000566  -0.000206  -0.000073  -0.000047  -0.109140   0.000232
     46       0.000049   0.000561   0.000148  -0.000190   0.000458   0.254523
     47       0.001808  -0.178829   0.000776   0.179636  -0.000798   0.000860
     48      -0.000120  -0.000332   0.000078   0.000078  -0.163194  -0.157760
     49      -0.000265   0.000321   0.000478  -0.000200  -0.157562   0.018918
     50       0.154117   0.089537   0.154418  -0.088152  -0.000558  -0.000832
     51       0.000122  -0.000335  -0.000075   0.000079   0.162847  -0.157948
     52      -0.000274  -0.000321   0.000468   0.000203  -0.157601  -0.018740
     53      -0.154007   0.089692  -0.153797  -0.089223   0.000581  -0.000838
     54      -0.000169  -0.001489   0.000413   0.000608  -0.160713   0.000678
     55       0.000103  -0.000786   0.000121   0.000284  -0.000279  -0.254642
     56       0.000864  -0.367757   0.001006   0.366765  -0.000280   0.003881
     57       0.001257   0.000090   0.000351   0.000231   0.230290   0.039893
     58      -0.000672   0.000829  -0.000291  -0.000404   0.040776   0.185186
     59       0.311337   0.180366   0.315304  -0.181273  -0.002901   0.001109
     60      -0.001263   0.000100  -0.000358   0.000220  -0.230206   0.040153
     61      -0.000675  -0.000818  -0.000295   0.000391   0.040374  -0.185239
     62      -0.311135   0.180702  -0.314038  -0.183486   0.002748   0.001126
     63       0.000179  -0.001490  -0.000403   0.000605   0.160711   0.000498
     64       0.000105   0.000752   0.000123  -0.000250   0.000273   0.254643
     65      -0.001293  -0.367748  -0.003574   0.366735   0.000164   0.003863
     66      -0.000350   0.000150   0.000012   0.000468  -0.230854  -0.040835
     67      -0.000883  -0.001001  -0.000326  -0.000275  -0.040713  -0.184097
     68       0.323080   0.181614   0.320515  -0.186226   0.001699   0.003096
     69       0.000326   0.000176  -0.000036   0.000440   0.230763  -0.041104
     70      -0.000867   0.001014  -0.000314   0.000261  -0.040303   0.184141
     71      -0.322878   0.181948  -0.319225  -0.188456  -0.001868   0.003110
                 18         19         20         21         22         23    
      0       0.000006  -0.109079  -0.000084   0.000046   0.000643  -0.000191
      1       0.254115  -0.000625  -0.000598  -0.001412  -0.000046  -0.000267
      2       0.000306   0.001370  -0.023835  -0.023652   0.156925   0.155080
      3      -0.158263  -0.162473   0.000140   0.000911   0.000787  -0.000376
      4       0.018374  -0.157397  -0.000108  -0.000031   0.000685  -0.000327
      5      -0.000851  -0.001041  -0.025048  -0.025497  -0.153271  -0.150880
      6      -0.157421   0.163127   0.000128   0.000900  -0.000814   0.000348
      7      -0.019189  -0.157319   0.000119   0.000041   0.000694  -0.000318
      8      -0.000877   0.001042  -0.025040  -0.025494   0.153268   0.150875
      9       0.000568   0.109079  -0.000089   0.000041  -0.000653   0.000182
     10      -0.254115   0.000431   0.000596   0.001410  -0.000071  -0.000293
     11       0.000331  -0.001382  -0.023839  -0.023650  -0.156913  -0.155068
     12       0.157823   0.162504  -0.000111  -0.001187  -0.000177   0.000702
     13      -0.017946   0.156981   0.000177   0.000130  -0.000487   0.000576
     14      -0.001193   0.000096  -0.023513  -0.024657   0.160997   0.160153
     15       0.156980  -0.163155  -0.000109  -0.001186   0.000212  -0.000665
     16       0.018757   0.156908  -0.000181  -0.000133  -0.000509   0.000554
     17      -0.001165  -0.000100  -0.023519  -0.024657  -0.161000  -0.160155
     18       0.000500   0.161047   0.000731   0.000290   0.000367   0.000050
     19       0.254295  -0.000730  -0.000852  -0.001573  -0.000158  -0.000316
     20       0.006301   0.002006   0.282748   0.284300   0.240505   0.242828
     21      -0.041085  -0.230716  -0.000065   0.000439   0.000383  -0.000579
     22      -0.185004  -0.039694  -0.000832  -0.000098   0.002047   0.000689
     23       0.014025   0.002338   0.294488   0.290179  -0.278967  -0.276891
     24      -0.039891   0.230884  -0.000038   0.000466  -0.000377   0.000586
     25       0.184793  -0.040458   0.000828   0.000095   0.002077   0.000721
     26       0.014007  -0.002330   0.294502   0.290181   0.278990   0.276939
     27      -0.000327  -0.161039   0.000751   0.000309  -0.000383  -0.000067
     28      -0.254298   0.000323   0.000766   0.001487  -0.000163  -0.000320
     29       0.006375  -0.001943   0.282717   0.284281  -0.240639  -0.242965
     30       0.040564   0.230690   0.000043  -0.000482  -0.000048   0.000971
     31       0.185214   0.039355  -0.000614  -0.001446  -0.000573   0.000101
     32       0.008690   0.003353   0.285433   0.288550   0.203005   0.202240
     33       0.039370  -0.230853   0.000065  -0.000461   0.000061  -0.000958
     34      -0.185005   0.040129   0.000636   0.001469  -0.000627   0.000046
     35       0.008691  -0.003312   0.285433   0.288546  -0.202993  -0.202225
     36      -0.000528  -0.109085  -0.000079  -0.000050   0.000643   0.000190
     37       0.252466  -0.000595   0.000596  -0.001409   0.000064  -0.000290
     38      -0.000308   0.001379  -0.023856   0.023649   0.156321  -0.155666
     39      -0.156742  -0.162416  -0.000101   0.001179   0.000216   0.000666
     40       0.017885  -0.157007   0.000188  -0.000139   0.000504   0.000560
     41       0.001167  -0.000116  -0.023516   0.024635  -0.160383   0.160768
     42      -0.156017   0.163273  -0.000121   0.001194  -0.000211  -0.000667
     43      -0.018582  -0.156907  -0.000170   0.000125   0.000505   0.000558
     44       0.001171   0.000105  -0.023536   0.024656   0.160375  -0.160755
     45      -0.000043   0.109085  -0.000092  -0.000039  -0.000646  -0.000185
     46      -0.252467   0.000790  -0.000601   0.001413   0.000057  -0.000280
     47      -0.000309  -0.001385  -0.023839   0.023632  -0.156328   0.155676
     48       0.157179   0.162385   0.000129  -0.000902  -0.000813  -0.000348
     49      -0.018314   0.157423  -0.000122   0.000042  -0.000694  -0.000318
     50       0.000863   0.001045  -0.025061   0.025491   0.152683  -0.151452
     51       0.156457  -0.163245   0.000141  -0.000910   0.000815   0.000344
     52       0.019016   0.157319   0.000106  -0.000031  -0.000704  -0.000309
     53       0.000864  -0.001075  -0.025050   0.025478  -0.152690   0.151463
     54       0.000282   0.161070   0.000716  -0.000276   0.000351  -0.000038
     55       0.252647  -0.000491   0.000851  -0.001570   0.000177  -0.000341
     56      -0.006336   0.002070   0.282874  -0.284177   0.239689  -0.243881
     57      -0.040228  -0.230680   0.000055   0.000473   0.000083   0.000940
     58      -0.183992  -0.039240  -0.000610   0.001442   0.000594   0.000079
     59      -0.008693  -0.003253   0.285549  -0.288405  -0.202178   0.202944
     60      -0.039199   0.230897   0.000036   0.000486  -0.000077  -0.000945
     61       0.183819  -0.040249   0.000619  -0.001449   0.000596   0.000074
     62      -0.008698   0.003469   0.285544  -0.288399   0.202267  -0.203072
     63      -0.000439  -0.161069   0.000736  -0.000293  -0.000355   0.000042
     64      -0.252647   0.000896  -0.000813   0.001532   0.000159  -0.000319
     65      -0.006327  -0.001900   0.282890  -0.284198  -0.239576   0.243713
     66       0.040745   0.230706  -0.000076  -0.000431  -0.000401  -0.000563
     67       0.183790   0.039573  -0.000829   0.000095  -0.002059   0.000710
     68      -0.013996  -0.002195   0.294599  -0.290024   0.277979  -0.278060
     69       0.039722  -0.230929   0.000005  -0.000506   0.000380   0.000583
     70      -0.183607   0.040570   0.000804  -0.000071  -0.002060   0.000711
     71      -0.014001   0.002450   0.294638  -0.290061  -0.277893   0.277954
                 24         25         26         27         28         29    
      0      -0.000536   0.000028   0.000145  -0.000189   0.000206  -0.000105
      1      -0.000029   0.000467  -0.000200   0.000708   0.000267  -0.000152
      2      -0.000392   0.000684   0.059923  -0.060399  -0.006023   0.003695
      3      -0.000506   0.000152   0.000396   0.000222   0.000417  -0.000128
      4      -0.000078   0.000078  -0.000285   0.000017   0.000275  -0.000449
      5       0.053201   0.051861   0.029048  -0.026689  -0.061357   0.056640
      6      -0.000503   0.000151  -0.000394  -0.000225  -0.000413   0.000124
      7       0.000079  -0.000079  -0.000280   0.000013   0.000264  -0.000437
      8       0.053242   0.051689  -0.029329   0.026696   0.061389  -0.056665
      9      -0.000534   0.000030  -0.000151   0.000193  -0.000194   0.000095
     10       0.000024  -0.000473  -0.000182   0.000693   0.000256  -0.000142
     11      -0.000335   0.000308  -0.059915   0.060389   0.005939  -0.003626
     12       0.000668  -0.000195   0.000376   0.000039   0.000490   0.000295
     13       0.000331  -0.000296   0.000051  -0.000513  -0.000265   0.000256
     14      -0.052440  -0.053476  -0.032710   0.034697  -0.057867   0.056860
     15       0.000666  -0.000199  -0.000377  -0.000037  -0.000498  -0.000287
     16      -0.000330   0.000298   0.000057  -0.000521  -0.000266   0.000258
     17      -0.052459  -0.053262   0.032987  -0.034692   0.057919  -0.056905
     18      -0.001306   0.000370  -0.001972  -0.000100   0.001018   0.000668
     19      -0.000110   0.000524   0.000331   0.000587   0.000357  -0.000048
     20       0.000065  -0.002826  -0.396272   0.394346   0.084030  -0.067402
     21      -0.001278   0.000215   0.001127   0.001267   0.001102  -0.000834
     22       0.002592   0.000682  -0.000481  -0.002021  -0.001875   0.001486
     23      -0.347021  -0.343010  -0.195452   0.183055   0.314305  -0.289228
     24      -0.001325   0.000158  -0.001095  -0.001299  -0.001157   0.000886
     25      -0.002578  -0.000674  -0.000474  -0.002026  -0.001895   0.001509
     26      -0.347272  -0.341823   0.197319  -0.183105  -0.314481   0.289359
     27      -0.001277   0.000415   0.001984   0.000082  -0.001010  -0.000670
     28       0.000104  -0.000527   0.000225   0.000696   0.000370  -0.000056
     29      -0.000324  -0.000350   0.396220  -0.394293  -0.083538   0.066999
     30       0.000564  -0.000409   0.000339   0.000551   0.000959   0.000820
     31       0.000181  -0.000591  -0.000112  -0.000992  -0.001569   0.000195
     32       0.351496   0.357824   0.219877  -0.235723   0.385025  -0.379298
     33       0.000590  -0.000386  -0.000350  -0.000536  -0.001005  -0.000776
     34      -0.000145   0.000626  -0.000123  -0.000984  -0.001619   0.000246
     35       0.351622   0.356365  -0.221737   0.235692  -0.385333   0.379569
     36       0.000542   0.000023   0.000147   0.000190  -0.000200  -0.000114
     37      -0.000033  -0.000463   0.000201   0.000709   0.000264   0.000169
     38       0.000317   0.000700   0.059954   0.060365   0.005783   0.003891
     39      -0.000666  -0.000200  -0.000377   0.000038   0.000500  -0.000275
     40      -0.000323  -0.000305  -0.000054  -0.000516  -0.000262  -0.000277
     41       0.052486  -0.053191   0.033070   0.034687  -0.055234  -0.059444
     42      -0.000675  -0.000188   0.000378  -0.000037  -0.000495   0.000281
     43       0.000332   0.000295  -0.000055  -0.000516  -0.000262  -0.000279
     44       0.052542  -0.053422  -0.032654  -0.034655   0.055248   0.059472
     45       0.000537   0.000028  -0.000145  -0.000188   0.000195   0.000109
     46       0.000022   0.000475   0.000193   0.000703   0.000267   0.000172
     47       0.000411   0.000289  -0.059952  -0.060360  -0.005821  -0.003952
     48       0.000509   0.000146  -0.000396   0.000222   0.000401   0.000137
     49       0.000081   0.000076   0.000284   0.000017   0.000250   0.000455
     50      -0.053260   0.051609  -0.029413  -0.026698  -0.058716  -0.059370
     51       0.000491   0.000167   0.000397  -0.000222  -0.000394  -0.000130
     52      -0.000077  -0.000079   0.000276   0.000009   0.000239   0.000444
     53      -0.053309   0.051814   0.029002   0.026662   0.058734   0.059400
     54       0.001314   0.000367  -0.001955   0.000117  -0.001046   0.000617
     55      -0.000112  -0.000522  -0.000331   0.000587   0.000358   0.000067
     56       0.000422  -0.002927  -0.396499  -0.394148  -0.080487  -0.070719
     57      -0.000557  -0.000419  -0.000334   0.000554   0.000989  -0.000783
     58      -0.000177  -0.000592   0.000107  -0.001001  -0.001561  -0.000268
     59      -0.351794   0.355891  -0.222278  -0.235645   0.367464   0.396503
     60      -0.000580  -0.000394   0.000343  -0.000547  -0.001002   0.000770
     61       0.000177   0.000593   0.000104  -0.000998  -0.001578  -0.000290
     62      -0.352177   0.357444   0.219492   0.235429  -0.367530  -0.396654
     63       0.001299   0.000393   0.001955  -0.000114   0.001030  -0.000636
     64       0.000103   0.000530  -0.000277   0.000643   0.000373   0.000081
     65      -0.000195  -0.000204   0.396484   0.394121   0.080712   0.071083
     66       0.001290   0.000195  -0.001121   0.001273   0.001064   0.000884
     67      -0.002584   0.000674   0.000476  -0.002021  -0.001806  -0.001573
     68       0.347399  -0.341322   0.197839   0.183088   0.300809   0.303197
     69       0.001341   0.000152   0.001069  -0.001323  -0.001126  -0.000947
     70       0.002547  -0.000637   0.000473  -0.002030  -0.001796  -0.001561
     71       0.347722  -0.342677  -0.195120  -0.182855  -0.300907  -0.303356
                 30         31         32         33         34         35    
      0      -0.000068   0.000138   0.000214   0.000008   0.000292   0.001368
      1      -0.000201   0.000459  -0.000951  -0.002217   0.194347   0.196204
      2       0.069281  -0.069623  -0.038230  -0.038404  -0.000008   0.000312
      3       0.000173  -0.000549   0.000214   0.000985   0.167891   0.168833
      4      -0.000097   0.000343   0.000312   0.000856   0.095709   0.094996
      5      -0.035165   0.034472   0.046561   0.046688  -0.000821   0.000629
      6       0.000144  -0.000522  -0.000194  -0.000963   0.167912   0.168858
      7       0.000119  -0.000366   0.000314   0.000855  -0.095716  -0.095005
      8      -0.035110   0.034400  -0.046562  -0.046691  -0.000792   0.000660
      9      -0.000064   0.000134  -0.000211  -0.000006   0.000285   0.001361
     10       0.000143  -0.000400  -0.000980  -0.002248  -0.194339  -0.196191
     11       0.069304  -0.069647   0.038235   0.038412  -0.000038   0.000282
     12       0.000031   0.000176   0.000392   0.001089  -0.168572  -0.170730
     13       0.000491   0.000290   0.000320   0.001089  -0.098408  -0.100633
     14      -0.033285   0.034213  -0.027065  -0.027923   0.000478   0.000113
     15       0.000003   0.000202  -0.000417  -0.001115  -0.168555  -0.170709
     16      -0.000469  -0.000312   0.000329   0.001098   0.098404   0.100626
     17      -0.033228   0.034136   0.027063   0.027921   0.000417   0.000054
     18      -0.002425   0.000501   0.002325   0.000249   0.003426   0.009770
     19       0.000112   0.000251  -0.001126  -0.002416   0.211632   0.213799
     20      -0.405573   0.405880   0.290193   0.289065   0.000288   0.000172
     21       0.000947  -0.000188  -0.001003   0.000063   0.183643   0.186947
     22      -0.001758   0.000248   0.003100   0.003339   0.103415   0.098078
     23       0.202550  -0.198303  -0.329446  -0.326374   0.004795  -0.004641
     24       0.000964  -0.000206   0.001082   0.000016   0.183681   0.186988
     25       0.001792  -0.000284   0.003108   0.003341  -0.103394  -0.098060
     26       0.202154  -0.197840   0.329451   0.326389   0.004659  -0.004784
     27      -0.002440   0.000514  -0.002326  -0.000256   0.003417   0.009760
     28      -0.000040  -0.000322  -0.001067  -0.002360  -0.211624  -0.213786
     29      -0.405667   0.406007  -0.290228  -0.289113   0.000448   0.000339
     30       0.000164  -0.000347   0.000048  -0.000086  -0.182678  -0.184387
     31      -0.000009   0.001765   0.000605   0.002433  -0.108563  -0.112598
     32       0.192702  -0.197868   0.230115   0.235270  -0.000671   0.002928
     33       0.000162  -0.000349  -0.000090   0.000042  -0.182652  -0.184357
     34       0.000065  -0.001823   0.000598   0.002422   0.108571   0.112604
     35       0.192429  -0.197446  -0.230104  -0.235258  -0.000505   0.003085
     36      -0.000063  -0.000133   0.000208  -0.000003   0.000301  -0.001359
     37       0.000186   0.000442   0.000942  -0.002210  -0.196227   0.194364
     38       0.069376   0.069554  -0.038217   0.038421   0.000013  -0.000333
     39       0.000026  -0.000181  -0.000423   0.001120  -0.170181   0.169103
     40       0.000481  -0.000300  -0.000331   0.001100  -0.099340   0.099665
     41      -0.033325  -0.034159   0.027059  -0.027938   0.000422  -0.000052
     42       0.000016  -0.000190   0.000396  -0.001094  -0.170181   0.169103
     43      -0.000481   0.000301  -0.000319   0.001088   0.099359  -0.099686
     44      -0.033277  -0.034120  -0.027056   0.027933   0.000446  -0.000078
     45      -0.000067  -0.000137  -0.000213   0.000008   0.000302  -0.001362
     46      -0.000174  -0.000430   0.000981  -0.002249   0.196177  -0.194307
     47       0.069376   0.069554   0.038217  -0.038417  -0.000029  -0.000288
     48       0.000157   0.000533  -0.000191   0.000961   0.169503  -0.167239
     49      -0.000110  -0.000357  -0.000300   0.000843   0.096642  -0.094115
     50      -0.035201  -0.034411  -0.046550   0.046708  -0.000780  -0.000673
     51       0.000145   0.000522   0.000230  -0.001000   0.169507  -0.167242
     52       0.000107   0.000353  -0.000324   0.000867  -0.096622   0.094092
     53      -0.035158  -0.034379   0.046547  -0.046708  -0.000817  -0.000633
     54      -0.002396  -0.000463   0.002290  -0.000215   0.003471  -0.009685
     55      -0.000128   0.000233   0.001116  -0.002409  -0.213681   0.211795
     56      -0.406086  -0.405451   0.290076  -0.289169   0.000220  -0.000095
     57       0.000169   0.000350  -0.000086  -0.000048  -0.184425   0.182637
     58      -0.000034  -0.001787  -0.000609   0.002437  -0.109590   0.111509
     59       0.192972   0.197584  -0.230054   0.235381  -0.000461  -0.003116
     60       0.000154   0.000339   0.000058   0.000076  -0.184388   0.182595
     61       0.000021   0.001776  -0.000601   0.002429   0.109671  -0.111601
     62       0.192674   0.197326   0.230034  -0.235352  -0.000641  -0.002926
     63      -0.002394  -0.000466  -0.002318   0.000246   0.003486  -0.009700
     64       0.000076  -0.000286   0.001115  -0.002408   0.213629  -0.211736
     65      -0.406071  -0.405438  -0.290080   0.289155   0.000456  -0.000342
     66       0.000947   0.000187   0.001034   0.000031   0.185397  -0.185168
     67      -0.001785  -0.000272  -0.003075   0.003313   0.104430  -0.097182
     68       0.202710   0.197920   0.329352  -0.326509   0.004553   0.004886
     69       0.000972   0.000212  -0.001065   0.000000   0.185446  -0.185219
     70       0.001750   0.000238  -0.003081   0.003321  -0.104334   0.097075
     71       0.202466   0.197746  -0.329331   0.326500   0.004857   0.004576
                 36         37         38         39         40         41    
      0       0.000410   0.000576   0.000298  -0.000476   0.057376   0.062076
      1      -0.203274  -0.202499   0.085557  -0.084770  -0.001999  -0.001115
      2      -0.000326   0.001078  -0.000353  -0.000272  -0.000268  -0.000017
      3       0.177016   0.178385   0.062421  -0.060287  -0.048198  -0.051398
      4       0.102076   0.101835  -0.024308   0.024329  -0.059836  -0.064457
      5      -0.001096  -0.001947   0.000268  -0.000906   0.000230  -0.000079
      6      -0.177003  -0.178372  -0.062629   0.060689  -0.047915  -0.050928
      7       0.102067   0.101826  -0.024051   0.023827   0.059947   0.064644
      8       0.001135   0.001987  -0.000270   0.000910   0.000231  -0.000073
      9      -0.000411  -0.000574  -0.000042  -0.000015   0.057375   0.062075
     10      -0.203291  -0.202519   0.085558  -0.084774   0.001613   0.000461
     11       0.000260  -0.001143   0.000361   0.000262  -0.000269  -0.000017
     12       0.177577   0.179277   0.062367  -0.060219  -0.044923  -0.049666
     13       0.101901   0.101618  -0.024209   0.024227  -0.059166  -0.064705
     14       0.000156   0.001102  -0.000129   0.000402  -0.000084   0.000227
     15      -0.177590  -0.179294  -0.062570   0.060610  -0.044640  -0.049196
     16       0.101912   0.101633  -0.023944   0.023715   0.059272   0.064887
     17      -0.000117  -0.001065   0.000117  -0.000391  -0.000101   0.000206
     18      -0.000520   0.002680   0.000668  -0.002549   0.367863   0.399542
     19      -0.202268  -0.201318   0.091501  -0.090418  -0.002281  -0.001340
     20      -0.002740  -0.011008   0.003110   0.000231  -0.000317  -0.002197
     21       0.177787   0.180941   0.207015  -0.201748   0.024730   0.026754
     22       0.099612   0.096258  -0.268680   0.263862  -0.196538  -0.210416
     23       0.006852   0.014106  -0.002253   0.007295  -0.002960   0.000470
     24      -0.177786  -0.180938  -0.206908   0.201536   0.025668   0.028319
     25       0.099579   0.096231  -0.267834   0.262217   0.197757   0.212456
     26      -0.007044  -0.014307   0.002285  -0.007338  -0.003016   0.000369
     27       0.000543  -0.002636   0.000933  -0.000573   0.367842   0.399524
     28      -0.202287  -0.201343   0.091504  -0.090423   0.001871   0.000647
     29       0.003058   0.011325  -0.003161  -0.000166  -0.000322  -0.002207
     30       0.177894   0.182839   0.207440  -0.203085   0.029960   0.031158
     31       0.099209   0.093800  -0.269522   0.265803  -0.198146  -0.214948
     32      -0.005084  -0.014366   0.000085  -0.001005   0.001386   0.000177
     33      -0.177909  -0.182854  -0.207303   0.202828   0.030897   0.032728
     34       0.099218   0.093822  -0.268623   0.264082   0.199355   0.216985
     35       0.004825   0.014110  -0.000012   0.000936   0.001351   0.000151
     36       0.000418  -0.000578   0.000067   0.000055  -0.062177   0.057287
     37       0.204048  -0.201675  -0.083892  -0.086431  -0.001729   0.000347
     38      -0.000295  -0.001106  -0.000348   0.000274   0.000269   0.000007
     39      -0.178319   0.178616  -0.061183  -0.061462   0.048694  -0.045889
     40      -0.102310   0.101227   0.023715   0.024633   0.064179  -0.059752
     41      -0.000124   0.001067   0.000109   0.000392   0.000081   0.000219
     42       0.178291  -0.178586   0.061352   0.061764   0.048524  -0.045494
     43      -0.102289   0.101206   0.023504   0.024252  -0.064254   0.059917
     44       0.000139  -0.001082  -0.000113  -0.000398   0.000078   0.000219
     45      -0.000408   0.000568  -0.000265  -0.000413  -0.062171   0.057280
     46       0.204069  -0.201699  -0.083902  -0.086445   0.001981  -0.000917
     47       0.000292   0.001108   0.000363  -0.000260   0.000267   0.000005
     48      -0.177721   0.177688  -0.061246  -0.061548   0.052081  -0.047337
     49      -0.102468   0.101423   0.023807   0.024730   0.064832  -0.059455
     50       0.001134  -0.001973  -0.000255  -0.000916  -0.000219  -0.000100
     51       0.177732  -0.177702   0.061395   0.061824   0.051917  -0.046947
     52      -0.102465   0.101421   0.023613   0.024371  -0.064903   0.059617
     53      -0.001148   0.001988   0.000247   0.000910  -0.000230  -0.000086
     54      -0.000482  -0.002699  -0.000785  -0.000166  -0.398775   0.368840
     55       0.203038  -0.200499  -0.089727  -0.092196  -0.002003   0.000509
     56      -0.002939   0.011151   0.003106  -0.000166   0.000440  -0.002128
     57      -0.178672   0.182198  -0.203390  -0.207026  -0.032550   0.028683
     58      -0.099550   0.093388   0.264190   0.270769   0.214968  -0.198393
     59       0.004882  -0.014093  -0.000054  -0.000990  -0.001387   0.000058
     60       0.178653  -0.182174   0.203312   0.206872  -0.033138   0.030031
     61      -0.099510   0.093349   0.263515   0.269535  -0.215751   0.200170
     62      -0.004964   0.014171   0.000046   0.000990  -0.001385   0.000065
     63       0.000555   0.002625  -0.000480  -0.002135  -0.398732   0.368792
     64       0.203060  -0.200527  -0.089737  -0.092210   0.002273  -0.001117
     65       0.002918  -0.011125  -0.003136   0.000147   0.000477  -0.002140
     66      -0.178529   0.180265  -0.203016  -0.205712  -0.027013   0.024742
     67      -0.099933   0.095812   0.263412   0.268838   0.213034  -0.194037
     68      -0.007057   0.014235   0.002116   0.007340   0.002913   0.000704
     69       0.178564  -0.180306   0.202912   0.205535  -0.027576   0.026059
     70      -0.099890   0.095770   0.262757   0.267647  -0.213782   0.195770
     71       0.007185  -0.014363  -0.002088  -0.007329   0.003000   0.000590
                 42         43         44         45         46         47    
      0      -0.021406   0.021905  -0.000400  -0.044667  -0.046229  -0.000950
      1      -0.000038  -0.000064  -0.001871  -0.000039   0.000066  -0.002128
      2      -0.000265   0.000123  -0.000143   0.000094  -0.000136   0.000023
      3       0.009490  -0.009970   0.020601   0.010182   0.010112   0.020547
      4      -0.016749   0.017552  -0.034657  -0.020004  -0.020707  -0.034698
      5       0.000092  -0.000055   0.000089  -0.000072   0.000113   0.000097
      6       0.009489  -0.009969   0.020588  -0.010122  -0.010298   0.020493
      7       0.016749  -0.017552   0.034636  -0.019898  -0.021017   0.034592
      8       0.000099  -0.000062   0.000091   0.000069  -0.000118   0.000098
      9      -0.021408   0.021908  -0.000353   0.044669   0.046242  -0.000719
     10       0.000035   0.000067   0.001873  -0.000034   0.000045   0.002131
     11      -0.000263   0.000121  -0.000145  -0.000094   0.000136   0.000023
     12       0.011970  -0.011878  -0.020464  -0.009324  -0.009791  -0.019771
     13      -0.019760   0.020015   0.032741   0.020078   0.020503   0.032038
     14       0.000096  -0.000098   0.000115  -0.000200   0.000144  -0.000119
     15       0.011970  -0.011878  -0.020459   0.009260   0.009965  -0.019726
     16       0.019763  -0.020018  -0.032720   0.019984   0.020794  -0.031936
     17       0.000100  -0.000102   0.000116   0.000206  -0.000136  -0.000120
     18      -0.286819   0.288520  -0.009816  -0.398521  -0.411542  -0.014790
     19       0.000015  -0.000260  -0.001952   0.000028   0.000329  -0.002442
     20       0.000860  -0.001631   0.001038   0.000047   0.003103  -0.000767
     21       0.134063  -0.137579   0.183812   0.099529   0.100791   0.183041
     22      -0.232607   0.238638  -0.317238  -0.174955  -0.178184  -0.316186
     23      -0.001145   0.001242  -0.001456   0.000167  -0.001869  -0.001781
     24       0.134067  -0.137584   0.183698  -0.098977  -0.102434   0.182523
     25       0.232616  -0.238650   0.317042  -0.173996  -0.181019   0.315275
     26      -0.001189   0.001286  -0.001499  -0.000151   0.001906  -0.001811
     27      -0.286806   0.288512  -0.009386   0.398483   0.411665  -0.012722
     28      -0.000021   0.000267   0.001955   0.000038   0.000311   0.002446
     29       0.000859  -0.001629   0.001053  -0.000061  -0.003111  -0.000772
     30       0.152376  -0.151643  -0.171298  -0.098299  -0.101058  -0.167711
     31      -0.262691   0.261774   0.293663   0.174369   0.178913   0.287757
     32      -0.000424   0.000783  -0.000336   0.000965   0.000114   0.001244
     33       0.152374  -0.151639  -0.171203   0.097794   0.102567  -0.167210
     34       0.262684  -0.261764  -0.293479   0.173510   0.181509  -0.286856
     35      -0.000471   0.000830  -0.000285  -0.000994  -0.000156   0.001293
     36       0.021584   0.021725  -0.000404   0.046126  -0.044766   0.000607
     37      -0.000036   0.000066   0.001839  -0.000038  -0.000049  -0.002146
     38       0.000262   0.000117  -0.000141  -0.000090  -0.000138  -0.000025
     39      -0.012060  -0.011771  -0.020212  -0.009583   0.009512   0.020050
     40       0.019939   0.019864   0.032319   0.020654  -0.019897  -0.032491
     41      -0.000101  -0.000101   0.000117  -0.000202  -0.000144   0.000118
     42      -0.012054  -0.011765  -0.020228   0.009634  -0.009640   0.019952
     43      -0.019929  -0.019855  -0.032353   0.020729  -0.020098   0.032284
     44      -0.000099  -0.000100   0.000117   0.000198   0.000146   0.000119
     45       0.021568   0.021709  -0.000324  -0.046133   0.044769   0.001068
     46       0.000034  -0.000067  -0.001843  -0.000032  -0.000064   0.002149
     47       0.000265   0.000120  -0.000145   0.000088   0.000140  -0.000020
     48      -0.009568  -0.009886   0.020334   0.010456  -0.009812  -0.020825
     49       0.016906   0.017424  -0.034197  -0.020575   0.020102   0.035169
     50      -0.000093  -0.000055   0.000088  -0.000065  -0.000119  -0.000098
     51      -0.009571  -0.009889   0.020352  -0.010497   0.009935  -0.020723
     52      -0.016914  -0.017433   0.034234  -0.020658   0.020323  -0.034963
     53      -0.000094  -0.000055   0.000089   0.000069   0.000115  -0.000099
     54       0.289226   0.286165  -0.009743   0.411521  -0.398548   0.011783
     55       0.000018   0.000261   0.001916   0.000037  -0.000307  -0.002462
     56      -0.000841  -0.001590   0.001047  -0.000119   0.003066   0.000780
     57      -0.153609  -0.150359  -0.169116  -0.101032   0.098027   0.170081
     58       0.264860   0.259601   0.289914   0.179251  -0.173543  -0.291839
     59       0.000443   0.000792  -0.000352   0.000972  -0.000090  -0.001242
     60      -0.153573  -0.150323  -0.169291   0.101479  -0.099134   0.169067
     61      -0.264799  -0.259539  -0.290224   0.180009  -0.175434   0.290041
     62       0.000447   0.000795  -0.000335  -0.000971   0.000095  -0.001253
     63       0.289076   0.286011  -0.009040  -0.411629   0.398589   0.015895
     64      -0.000021  -0.000264  -0.001921   0.000045  -0.000325   0.002463
     65      -0.000855  -0.001604   0.001058   0.000127  -0.003079   0.000740
     66      -0.135207  -0.136468   0.181376   0.102271  -0.097792  -0.185506
     67       0.234633   0.236753  -0.313044  -0.179827   0.172911   0.320469
     68       0.001154   0.001230  -0.001436   0.000107   0.001880   0.001802
     69      -0.135229  -0.136491   0.181544  -0.102636   0.098889  -0.184483
     70      -0.234681  -0.236803   0.313351  -0.180479   0.174826  -0.318673
     71       0.001169   0.001244  -0.001458  -0.000110  -0.001884   0.001811
                 48         49         50         51         52         53    
      0      -0.213358   0.217268  -0.042148   0.042865  -0.000778  -0.001466
      1      -0.000802   0.000420   0.000186  -0.000233  -0.066186  -0.064314
      2       0.000278   0.000772   0.000131  -0.000101   0.000083  -0.000144
      3       0.105994  -0.107573  -0.021016   0.021384  -0.074247  -0.072078
      4      -0.184717   0.188778   0.036541  -0.037165   0.062872   0.061849
      5      -0.000205   0.000292   0.000067  -0.000077   0.000045   0.000018
      6       0.106004  -0.107584   0.021012  -0.021380   0.074418   0.072714
      7       0.184729  -0.188791   0.036531  -0.037154   0.062337   0.059864
      8      -0.000214   0.000301  -0.000065   0.000074  -0.000043  -0.000014
      9      -0.213348   0.217257   0.042157  -0.042874   0.000013  -0.001376
     10       0.000802  -0.000421   0.000186  -0.000233  -0.066193  -0.064333
     11       0.000290   0.000761  -0.000133   0.000103  -0.000087   0.000143
     12       0.107293  -0.109397   0.021456  -0.021842  -0.074301  -0.071748
     13      -0.185381   0.188202  -0.036737   0.037436   0.062831   0.061622
     14      -0.000052  -0.000339   0.000113  -0.000068   0.000107   0.000097
     15       0.107291  -0.109393  -0.021460   0.021846   0.074464   0.072365
     16       0.185373  -0.188194  -0.036744   0.037444   0.062270   0.059584
     17      -0.000073  -0.000318  -0.000114   0.000068  -0.000106  -0.000097
     18       0.192576  -0.194893   0.283834  -0.288918   0.001352   0.005342
     19      -0.001223   0.000463   0.000113  -0.000150  -0.081000  -0.078771
     20      -0.001612  -0.002662  -0.000652   0.000726  -0.000009  -0.000036
     21      -0.094576   0.096882   0.141274  -0.143714   0.133481   0.131129
     22       0.162904  -0.164712  -0.244515   0.248766  -0.311917  -0.303812
     23       0.001344  -0.001261  -0.001229   0.001321  -0.001777  -0.000618
     24      -0.094638   0.096945  -0.141262   0.143702  -0.132341  -0.126911
     25      -0.163021   0.164830  -0.244499   0.248750  -0.310963  -0.300279
     26       0.001239  -0.001154   0.001240  -0.001331   0.001782   0.000609
     27       0.192519  -0.194836  -0.283856   0.288940   0.001474   0.005112
     28       0.001231  -0.000470   0.000109  -0.000145  -0.081007  -0.078787
     29      -0.001659  -0.002613   0.000661  -0.000736  -0.000006   0.000008
     30      -0.097210   0.094868  -0.141313   0.143702   0.132420   0.130052
     31       0.168640  -0.165790   0.245021  -0.249177  -0.309776  -0.301807
     32       0.000264   0.001396   0.000051  -0.000101  -0.000178  -0.000082
     33      -0.097188   0.094844   0.141327  -0.143717  -0.131266  -0.125786
     34      -0.168596   0.165741   0.245039  -0.249195  -0.308802  -0.298216
     35       0.000208   0.001452  -0.000071   0.000122   0.000199   0.000091
     36      -0.215765  -0.214868  -0.042893  -0.042142  -0.000515  -0.000933
     37       0.000794   0.000398  -0.000189  -0.000229   0.064220  -0.066302
     38       0.000264  -0.000781   0.000133   0.000099   0.000087   0.000144
     39       0.108493   0.108177  -0.021828  -0.021467   0.072203  -0.074059
     40      -0.187445  -0.186095   0.037382   0.036801  -0.060619   0.063183
     41      -0.000044   0.000345  -0.000117  -0.000069  -0.000097   0.000092
     42       0.108489   0.108174   0.021825   0.021464  -0.072152   0.074494
     43       0.187454   0.186105   0.037375   0.036794  -0.060774   0.061759
     44      -0.000051   0.000337   0.000116   0.000067   0.000101  -0.000097
     45      -0.215744  -0.214847   0.042897   0.042147   0.000285  -0.001060
     46      -0.000797  -0.000401  -0.000190  -0.000230   0.064220  -0.066292
     47       0.000263  -0.000782  -0.000132  -0.000098  -0.000089  -0.000139
     48       0.107187   0.106383   0.021375   0.021011   0.072135  -0.074385
     49      -0.186806  -0.186699  -0.037165  -0.036517  -0.060660   0.063421
     50      -0.000209  -0.000291  -0.000068  -0.000075  -0.000042   0.000017
     51       0.107196   0.106392  -0.021378  -0.021014  -0.072082   0.074827
     52       0.186805   0.186697  -0.037174  -0.036526  -0.060820   0.062024
     53      -0.000215  -0.000298   0.000069   0.000076   0.000042  -0.000016
     54       0.194804   0.192797   0.288746   0.283943   0.000366   0.003542
     55       0.001214   0.000435  -0.000115  -0.000148   0.078593  -0.081200
     56      -0.001640   0.002621  -0.000653  -0.000704   0.000002   0.000012
     57      -0.098209  -0.093721   0.143791   0.141260  -0.127755   0.133345
     58       0.170399   0.163811  -0.249322  -0.244947   0.299974  -0.310508
     59       0.000193  -0.001453  -0.000049  -0.000096   0.000159  -0.000072
     60      -0.098238  -0.093752  -0.143779  -0.141248   0.128085  -0.130344
     61      -0.170435  -0.163851  -0.249304  -0.244930   0.300247  -0.307982
     62       0.000207  -0.001439   0.000056   0.000103  -0.000178   0.000076
     63       0.194678   0.192671  -0.288758  -0.283955   0.000467   0.003796
     64      -0.001219  -0.000440  -0.000115  -0.000147   0.078592  -0.081192
     65      -0.001614   0.002646   0.000656   0.000707   0.000005  -0.000034
     66      -0.095669  -0.095837  -0.143720  -0.141241  -0.128771   0.134442
     67       0.164809   0.162957   0.248777   0.244513   0.302039  -0.312564
     68       0.001351   0.001240   0.001249   0.001295   0.001750  -0.000666
     69      -0.095652  -0.095822   0.143729   0.141250   0.129110  -0.131485
     70      -0.164809  -0.162959   0.248797   0.244533   0.302329  -0.310093
     71       0.001338   0.001228  -0.001259  -0.001305  -0.001767   0.000665
                 54         55         56         57         58         59    
      0      -0.100967   0.106691  -0.002550   0.223420   0.235308  -0.000368
      1       0.001405  -0.001041  -0.105279  -0.000323   0.000520  -0.104977
      2       0.000088  -0.000032   0.000411  -0.000201  -0.000271   0.000095
      3       0.023566  -0.024203  -0.052657  -0.132924  -0.139723  -0.054093
      4       0.069705  -0.074014   0.199731   0.053516   0.054360   0.199953
      5       0.000120  -0.000163  -0.000178   0.000269   0.000009   0.000168
      6       0.021534  -0.023652  -0.055028   0.132208   0.140131  -0.052379
      7      -0.071413   0.074476  -0.200662   0.050861   0.055898  -0.199275
      8       0.000123  -0.000166  -0.000167  -0.000275  -0.000014   0.000175
      9      -0.100965   0.106687   0.001453  -0.223426  -0.235293  -0.003245
     10       0.000399   0.000554   0.105267   0.001073  -0.000289   0.104973
     11       0.000089  -0.000036   0.000416   0.000215   0.000279   0.000108
     12       0.023031  -0.023331   0.052719   0.132867   0.138961   0.055183
     13       0.070979  -0.076222  -0.196926  -0.053955  -0.054439  -0.197277
     14      -0.000049   0.000032  -0.000227   0.000199   0.000055  -0.000228
     15       0.021013  -0.022788   0.055101  -0.132154  -0.139381   0.053490
     16      -0.072677   0.076680   0.197873  -0.051347  -0.055968   0.196606
     17      -0.000036   0.000020  -0.000242  -0.000203  -0.000055  -0.000247
     18       0.370947  -0.391659   0.004711  -0.291430  -0.307464   0.001685
     19       0.001496  -0.000991  -0.116035  -0.000124   0.000994  -0.115905
     20      -0.000692   0.000554  -0.000473   0.000035   0.001009  -0.000478
     21       0.147939  -0.158122   0.182076  -0.011519  -0.013563   0.181926
     22      -0.121185   0.131689  -0.195331  -0.175727  -0.184071  -0.197196
     23      -0.000694  -0.000009   0.000072  -0.000481  -0.000291  -0.000958
     24       0.151549  -0.159091   0.181840   0.013925   0.012155   0.182074
     25       0.129646  -0.133967   0.198439  -0.173124  -0.185589   0.194919
     26      -0.000735   0.000018   0.000090   0.000490   0.000306  -0.000927
     27       0.370959  -0.391668  -0.000508   0.291476   0.307458   0.005447
     28       0.000720   0.000387   0.116016   0.001424   0.000111   0.115904
     29      -0.000709   0.000571  -0.000506  -0.000062  -0.001027  -0.000525
     30       0.149502  -0.159587  -0.178432   0.010315   0.012918  -0.177084
     31      -0.122936   0.133578   0.192658   0.176100   0.182977   0.194339
     32      -0.000603   0.000228   0.000344  -0.000755  -0.001157   0.001104
     33       0.153088  -0.160556  -0.178240  -0.012662  -0.011532  -0.177247
     34       0.131338  -0.135839  -0.195815   0.173539   0.184483  -0.192119
     35      -0.000631   0.000255   0.000320   0.000736   0.001121   0.001106
     36      -0.106715  -0.100950   0.000967  -0.235531   0.223165   0.002724
     37       0.000078  -0.000830   0.104927   0.001274   0.000590  -0.105318
     38       0.000084   0.000026   0.000405   0.000214  -0.000252  -0.000097
     39       0.023962   0.021738   0.052838   0.140130  -0.131629  -0.055055
     40       0.075355   0.072418  -0.196416  -0.057182   0.051074   0.197818
     41      -0.000044  -0.000023  -0.000226   0.000212  -0.000056   0.000229
     42       0.022571   0.021881   0.054618  -0.139219   0.132342  -0.053961
     43      -0.076520  -0.072293   0.197124  -0.053809   0.053627  -0.197384
     44      -0.000043  -0.000023  -0.000229  -0.000212   0.000049   0.000235
     45      -0.106701  -0.100936  -0.002028   0.235552  -0.223216   0.000867
     46       0.001154   0.000693  -0.104936  -0.000524  -0.000771   0.105322
     47       0.000087   0.000024   0.000415  -0.000207   0.000254  -0.000101
     48       0.024523   0.022559  -0.052782  -0.140250   0.132411   0.053966
     49       0.073990   0.070311   0.199174   0.056747  -0.051015  -0.200465
     50       0.000130   0.000157  -0.000180   0.000267   0.000007  -0.000166
     51       0.023146   0.022722  -0.054552   0.139318  -0.133090   0.052856
     52      -0.075151  -0.070177  -0.199870   0.053333  -0.053607   0.200028
     53       0.000134   0.000161  -0.000170  -0.000275  -0.000001  -0.000173
     54       0.392031   0.370544   0.000093   0.307268  -0.291603  -0.004740
     55       0.000334  -0.000747   0.115645   0.001657   0.000245  -0.116288
     56      -0.000711  -0.000505  -0.000477  -0.000108   0.001012   0.000496
     57       0.158684   0.151594  -0.177848   0.010587  -0.012741   0.177715
     58      -0.131519  -0.127794   0.192452   0.185944  -0.173007  -0.194609
     59      -0.000621  -0.000200   0.000306  -0.000808   0.001110  -0.001075
     60       0.161136   0.151323  -0.177695  -0.013652   0.010462   0.177811
     61       0.137282   0.127173  -0.194801   0.182617  -0.175503   0.193163
     62      -0.000620  -0.000197   0.000309   0.000805  -0.001089  -0.001097
     63       0.392022   0.370541   0.004006  -0.307293   0.291703  -0.002321
     64       0.001174   0.000577  -0.115657  -0.000322  -0.001259   0.116288
     65      -0.000707  -0.000502  -0.000490   0.000084  -0.001003   0.000501
     66       0.157069   0.150241   0.181408  -0.011837   0.013355  -0.182503
     67      -0.129731  -0.126064  -0.195079  -0.185663   0.174137   0.197433
     68      -0.000715   0.000032   0.000075  -0.000503   0.000270   0.000956
     69       0.159534   0.149960   0.181227   0.014919  -0.010974  -0.182594
     70       0.135498   0.125407   0.197406  -0.182319   0.176695  -0.195964
     71      -0.000715   0.000037   0.000090   0.000540  -0.000315   0.000932
                 60         61         62         63         64         65    
      0      -0.000429   0.000426  -0.000332   0.000314   0.001068  -0.001055
      1       0.022681  -0.022375   0.035948  -0.034363   0.017507  -0.017673
      2       0.000004  -0.000003   0.000005  -0.000009   0.000033   0.000006
      3      -0.008447   0.008470  -0.010032   0.010015  -0.027888   0.027698
      4      -0.005165   0.005164  -0.006741   0.006746  -0.016051   0.015938
      5       0.000005  -0.000008   0.000012  -0.000002  -0.000004  -0.000006
      6       0.008460  -0.008483  -0.010095   0.010103   0.027824  -0.027645
      7      -0.005175   0.005174   0.006780  -0.006799  -0.016008   0.015903
      8      -0.000007   0.000009   0.000014  -0.000003  -0.000000   0.000011
      9       0.000427  -0.000425  -0.000326   0.000308  -0.001069   0.001056
     10       0.022744  -0.022438  -0.036036   0.034466   0.017338  -0.017537
     11       0.000002  -0.000003  -0.000004  -0.000000  -0.000028  -0.000011
     12      -0.029178   0.029403   0.017558  -0.016975   0.019302  -0.019586
     13      -0.016644   0.016762   0.011515  -0.011092   0.009989  -0.010173
     14      -0.000034   0.000029   0.000009  -0.000023   0.000012  -0.000030
     15       0.029182  -0.029407   0.017696  -0.017121  -0.019225   0.019526
     16      -0.016646   0.016764  -0.011587   0.011167   0.009938  -0.010134
     17       0.000034  -0.000028   0.000009  -0.000023  -0.000011   0.000030
     18       0.000519  -0.000565   0.000325  -0.000378  -0.001541   0.001690
     19      -0.271095   0.267562  -0.420260   0.401608  -0.203168   0.205246
     20      -0.000185   0.000076  -0.000297   0.000127  -0.000141   0.000034
     21       0.105332  -0.105296   0.124248  -0.123437   0.329930  -0.327301
     22       0.061178  -0.061242   0.072940  -0.072743   0.190485  -0.188867
     23       0.000192  -0.000140   0.000157  -0.000239   0.000627  -0.000414
     24      -0.105502   0.105469   0.125017  -0.124500  -0.329153   0.326660
     25       0.061279  -0.061345  -0.073388   0.073362   0.190028  -0.188491
     26      -0.000176   0.000124   0.000140  -0.000223  -0.000577   0.000364
     27      -0.000514   0.000560   0.000312  -0.000365   0.001544  -0.001692
     28      -0.271823   0.268287   0.421246  -0.402774  -0.201184   0.203661
     29       0.000110  -0.000002  -0.000181   0.000017   0.000085   0.000023
     30       0.345935  -0.348444  -0.210381   0.203244  -0.217039   0.220604
     31       0.199536  -0.200970  -0.123570   0.119411  -0.123668   0.125671
     32       0.000324  -0.000339  -0.000167   0.000223  -0.000108   0.000223
     33      -0.345960   0.348470  -0.211939   0.204886   0.216111  -0.219884
     34       0.199554  -0.200988   0.124461  -0.120348  -0.123126   0.125251
     35      -0.000317   0.000332  -0.000165   0.000221   0.000103  -0.000218
     36      -0.000430  -0.000427  -0.000319  -0.000327  -0.001069  -0.001053
     37      -0.022682  -0.022340  -0.034563  -0.035730   0.017521   0.017634
     38       0.000004   0.000003   0.000005   0.000009  -0.000033   0.000006
     39       0.029250   0.029427   0.017001   0.017790   0.019224   0.019467
     40       0.016682   0.016773   0.011136   0.011608   0.009938   0.010103
     41       0.000034   0.000029   0.000008   0.000024   0.000012   0.000030
     42      -0.029224  -0.029398   0.016946   0.017715  -0.019275  -0.019501
     43       0.016666   0.016756  -0.011109  -0.011570   0.009972   0.010127
     44      -0.000034  -0.000028   0.000008   0.000024  -0.000011  -0.000030
     45       0.000429   0.000425  -0.000317  -0.000323   0.001070   0.001054
     46      -0.022692  -0.022346   0.034636   0.035822   0.017386   0.017530
     47      -0.000001   0.000000   0.000000   0.000005   0.000031  -0.000009
     48       0.008447   0.008457  -0.009695  -0.010494  -0.027905  -0.027640
     49       0.005164   0.005155  -0.006509  -0.007059  -0.016053  -0.015899
     50      -0.000006  -0.000008   0.000012   0.000002  -0.000003   0.000007
     51      -0.008443  -0.008454  -0.009637  -0.010403   0.027947   0.027671
     52       0.005161   0.005153   0.006474   0.007005  -0.016081  -0.015919
     53       0.000008   0.000010   0.000015   0.000005  -0.000003  -0.000014
     54       0.000521   0.000567   0.000310   0.000391   0.001543   0.001687
     55       0.271125   0.267165   0.404080   0.417589  -0.203346  -0.204813
     56      -0.000185  -0.000076  -0.000292  -0.000139   0.000141   0.000035
     57      -0.346747  -0.348685  -0.203619  -0.212898  -0.216097  -0.219211
     58      -0.199992  -0.201097  -0.119571  -0.125050  -0.123111  -0.124860
     59      -0.000326  -0.000340  -0.000160  -0.000231  -0.000108  -0.000223
     60       0.346452   0.348364  -0.203007  -0.212064   0.216720   0.219632
     61      -0.199820  -0.200910   0.119224   0.124577  -0.123478  -0.125109
     62       0.000319   0.000333  -0.000155  -0.000226   0.000104   0.000219
     63      -0.000518  -0.000564   0.000305   0.000384  -0.001544  -0.001687
     64       0.271235   0.267217  -0.404915  -0.418647  -0.201768  -0.203600
     65       0.000148   0.000039  -0.000237  -0.000083  -0.000113  -0.000006
     66      -0.105327  -0.105132   0.120065   0.129319   0.330097   0.326591
     67      -0.061169  -0.061141   0.070462   0.076181   0.190554   0.188433
     68      -0.000188  -0.000136   0.000144   0.000242   0.000616   0.000401
     69       0.105281   0.105095   0.119371   0.128228  -0.330620  -0.326972
     70      -0.061140  -0.061116  -0.070057  -0.075546   0.190857   0.188651
     71       0.000163   0.000111   0.000116   0.000210  -0.000540  -0.000325
                 66         67         68         69         70         71    
      0       0.000242  -0.002242  -0.000262   0.002261  -0.000678   0.000735
      1      -0.032782  -0.011819   0.032527   0.013251   0.022993  -0.021968
      2      -0.000048  -0.000015   0.000005  -0.000017   0.000021  -0.000038
      3      -0.024213   0.020119   0.023711  -0.019236   0.030424  -0.031004
      4      -0.011515   0.013072   0.011281  -0.012571   0.018074  -0.018417
      5      -0.000018   0.000014  -0.000014  -0.000006   0.000008  -0.000011
      6       0.024149   0.020193  -0.023352  -0.019765   0.030418  -0.031000
      7      -0.011473  -0.013108   0.011047   0.012822  -0.018072   0.018416
      8       0.000015   0.000011   0.000017  -0.000003   0.000005  -0.000007
      9      -0.000230  -0.002243   0.000215   0.002267  -0.000678   0.000735
     10      -0.032800   0.011716   0.032754  -0.012514  -0.022956   0.021934
     11       0.000039  -0.000011   0.000004  -0.000020   0.000015  -0.000032
     12      -0.013190   0.029738   0.013197  -0.030687  -0.015144   0.014160
     13      -0.005427   0.018329   0.005490  -0.018893  -0.008427   0.007849
     14       0.000014   0.000001   0.000009  -0.000036  -0.000024  -0.000010
     15       0.013009   0.029749  -0.012536  -0.030946  -0.015145   0.014160
     16      -0.005315  -0.018330   0.005083   0.018996   0.008426  -0.007847
     17      -0.000014   0.000001  -0.000008  -0.000037  -0.000025  -0.000010
     18      -0.000181   0.003444   0.000290  -0.003529   0.000944  -0.001024
     19       0.366181   0.132285  -0.364119  -0.148362  -0.249928   0.238264
     20       0.000467   0.000120  -0.000112  -0.000012  -0.000173   0.000263
     21       0.265612  -0.234868  -0.260046   0.225063  -0.337634   0.344645
     22       0.149619  -0.137735  -0.146356   0.132185  -0.195560   0.199780
     23       0.000531  -0.000492  -0.000317   0.000347  -0.000634   0.000493
     24      -0.264868  -0.235685   0.255851   0.230864  -0.337582   0.344608
     25       0.149181   0.138195  -0.143892  -0.135449   0.195532  -0.199760
     26      -0.000489  -0.000459   0.000273   0.000320  -0.000584   0.000442
     27       0.000160   0.003447  -0.000213  -0.003537   0.000941  -0.001021
     28       0.366357  -0.131132  -0.366638   0.140101   0.249501  -0.237880
     29      -0.000368   0.000083   0.000012   0.000029  -0.000105   0.000198
     30       0.137827  -0.335855  -0.138396   0.346809   0.162999  -0.151687
     31       0.076259  -0.195828  -0.076633   0.202179   0.093674  -0.087144
     32       0.000038  -0.000201  -0.000145   0.000376   0.000161  -0.000059
     33      -0.135769  -0.335938   0.130917   0.349493   0.162996  -0.151678
     34       0.075060   0.195872  -0.072275  -0.203662  -0.093672   0.087139
     35      -0.000034  -0.000194   0.000134   0.000372   0.000159  -0.000056
     36       0.000228   0.002288   0.000216   0.002219   0.000672   0.000741
     37       0.032424  -0.011958   0.033248  -0.012311   0.022826   0.022161
     38      -0.000048   0.000014  -0.000005  -0.000017  -0.000020  -0.000038
     39       0.012972  -0.030305   0.013369  -0.030035   0.015024   0.014274
     40       0.005327  -0.018682   0.005560  -0.018491   0.008358   0.007910
     41      -0.000013  -0.000002   0.000009  -0.000037   0.000025  -0.000009
     42      -0.012873  -0.030407  -0.012686  -0.030338   0.015029   0.014280
     43       0.005266   0.018728   0.005140   0.018619  -0.008361  -0.007914
     44       0.000014  -0.000002  -0.000008  -0.000036   0.000025  -0.000010
     45      -0.000237   0.002288  -0.000267   0.002215   0.000672   0.000740
     46       0.032361   0.012139   0.032940   0.013005  -0.022810  -0.022147
     47       0.000043   0.000013   0.000001  -0.000018  -0.000017  -0.000035
     48       0.023894  -0.020496   0.024052  -0.018844  -0.030160  -0.031233
     49       0.011362  -0.013322   0.011448  -0.012313  -0.017915  -0.018552
     50       0.000018  -0.000013  -0.000014  -0.000005  -0.000008  -0.000010
     51      -0.023800  -0.020630  -0.023588  -0.019345  -0.030169  -0.031241
     52       0.011301   0.013385   0.011146   0.012550   0.017920   0.018555
     53      -0.000013  -0.000008   0.000019  -0.000001  -0.000001  -0.000004
     54      -0.000163  -0.003516  -0.000215  -0.003463  -0.000935  -0.001031
     55      -0.362179   0.133858  -0.372187   0.137853  -0.248128  -0.240371
     56       0.000467  -0.000119   0.000120  -0.000008   0.000171   0.000265
     57      -0.135486   0.342263  -0.140180   0.339428  -0.161690  -0.152897
     58      -0.074943   0.199562  -0.077615   0.197868  -0.092915  -0.087833
     59      -0.000036   0.000209  -0.000146   0.000372  -0.000161  -0.000060
     60       0.134368   0.343368   0.132466   0.342633  -0.161761  -0.152967
     61      -0.074291  -0.200181  -0.073120  -0.199647   0.092957   0.087875
     62       0.000033   0.000203   0.000135   0.000369  -0.000159  -0.000058
     63       0.000175  -0.003517   0.000295  -0.003459  -0.000934  -0.001030
     64      -0.361460  -0.135872  -0.368722  -0.145606   0.247944   0.240213
     65      -0.000417  -0.000103  -0.000069   0.000010   0.000139   0.000233
     66      -0.262107   0.239304  -0.263796   0.220485   0.334692   0.347187
     67      -0.147631   0.140334  -0.148463   0.129485   0.193837   0.201234
     68      -0.000517   0.000490  -0.000316   0.000330   0.000618   0.000485
     69       0.261010   0.240773   0.258379   0.225971   0.334798   0.347275
     70      -0.146984  -0.141156  -0.145280  -0.132567  -0.193891  -0.201278
     71       0.000455   0.000437   0.000248   0.000283   0.000542   0.000406


-----------
IR SPECTRUM
-----------

 Mode   freq       eps      Int      T**2         TX        TY        TZ
       cm**-1   L/(mol*cm) km/mol    a.u.
----------------------------------------------------------------------------
  8:     27.36   0.000049    0.25  0.000558  (-0.001802  0.000004  0.023554)
  9:     35.36   0.000000    0.00  0.000000  ( 0.000005  0.000002 -0.000065)
 10:     54.30   0.000013    0.07  0.000077  ( 0.000003  0.008763 -0.000005)
 11:     55.34   0.000000    0.00  0.000000  (-0.000001  0.000013  0.000010)
 12:    395.07   0.000010    0.05  0.000008  ( 0.000007 -0.002787 -0.000001)
 13:    397.08   0.000001    0.00  0.000001  (-0.000748  0.000009  0.000237)
 14:    398.56   0.000000    0.00  0.000000  ( 0.000003 -0.000002 -0.000002)
 15:    398.96   0.000000    0.00  0.000000  ( 0.000001 -0.000004 -0.000001)
 16:    624.14   0.000001    0.00  0.000000  (-0.000000  0.000524 -0.000007)
 17:    624.59   0.000001    0.00  0.000000  (-0.000040 -0.000000 -0.000627)
 18:    624.76   0.000000    0.00  0.000000  (-0.000000  0.000001 -0.000004)
 19:    624.92   0.000000    0.00  0.000000  ( 0.000001 -0.000001  0.000014)
 20:    656.24   0.049881  252.08  0.023720  ( 0.002005 -0.000012  0.154001)
 21:    661.89   0.000000    0.00  0.000000  (-0.000004 -0.000012  0.000035)
 22:    695.31   0.000000    0.00  0.000000  ( 0.000012 -0.000003  0.000002)
 23:    696.78   0.000014    0.07  0.000006  (-0.000004  0.002519 -0.000007)
 24:    829.64   0.000000    0.00  0.000000  (-0.000001 -0.000003 -0.000002)
 25:    831.17   0.000298    1.51  0.000112  ( 0.010582  0.000007  0.000059)
 26:    831.71   0.000000    0.00  0.000000  (-0.000044 -0.000011  0.000001)
 27:    836.85   0.000519    2.62  0.000194  (-0.000005 -0.013912  0.000001)
 28:    898.22   0.000082    0.42  0.000029  (-0.000044 -0.005342  0.000006)
 29:    898.54   0.000000    0.00  0.000000  ( 0.000016 -0.000112  0.000003)
 30:    904.48   0.000063    0.32  0.000022  (-0.004596 -0.000013 -0.000739)
 31:    906.82   0.000000    0.00  0.000000  ( 0.000011 -0.000022  0.000002)
 32:    971.90   0.000000    0.00  0.000000  (-0.000017  0.000013  0.000001)
 33:    972.85   0.000000    0.00  0.000000  ( 0.000018 -0.000109 -0.000005)
 34:   1009.43   0.000009    0.05  0.000003  (-0.001511  0.000001 -0.000721)
 35:   1009.92   0.000000    0.00  0.000000  (-0.000006 -0.000001 -0.000004)
 36:   1031.26   0.000000    0.00  0.000000  ( 0.000000  0.000005 -0.000004)
 37:   1031.33   0.000002    0.01  0.000001  ( 0.000001 -0.000847 -0.000000)
 38:   1053.04   0.000000    0.00  0.000000  ( 0.000005 -0.000220  0.000003)
 39:   1053.77   0.001725    8.72  0.000511  (-0.000083  0.022602 -0.000004)
 40:   1054.06   0.000003    0.02  0.000001  (-0.000944  0.000010 -0.000020)
 41:   1054.32   0.001870    9.45  0.000553  ( 0.023520  0.000080  0.000459)
 42:   1173.92   0.000000    0.00  0.000000  ( 0.000003 -0.000000 -0.000003)
 43:   1174.22   0.000002    0.01  0.000001  ( 0.000313  0.000001 -0.000728)
 44:   1192.23   0.000028    0.14  0.000007  (-0.002582 -0.000000  0.000740)
 45:   1192.96   0.000035    0.18  0.000009  (-0.000001  0.003041 -0.000001)
 46:   1193.71   0.000000    0.00  0.000000  ( 0.000002  0.000050 -0.000000)
 47:   1193.76   0.000000    0.00  0.000000  ( 0.000017 -0.000004 -0.000004)
 48:   1353.61   0.000012    0.06  0.000003  ( 0.000820 -0.000001  0.001436)
 49:   1354.44   0.000000    0.00  0.000000  (-0.000005  0.000000 -0.000008)
 50:   1376.75   0.000000    0.00  0.000000  ( 0.000000 -0.000000  0.000000)
 51:   1376.84   0.000000    0.00  0.000000  (-0.000000 -0.000066 -0.000000)
 52:   1508.25   0.000001    0.00  0.000000  ( 0.000055 -0.000342  0.000001)
 53:   1508.64   0.002489   12.58  0.000515  ( 0.000267 -0.022689  0.000014)
 54:   1508.74   0.002531   12.79  0.000523  ( 0.022849  0.000264  0.001169)
 55:   1509.06   0.000002    0.01  0.000000  (-0.000632 -0.000054 -0.000031)
 56:   1625.64   0.000011    0.06  0.000002  ( 0.000201 -0.000002  0.001432)
 57:   1625.94   0.000000    0.00  0.000000  ( 0.000002  0.000206  0.000010)
 58:   1626.24   0.000000    0.00  0.000000  ( 0.000001  0.000006  0.000002)
 59:   1626.66   0.000000    0.00  0.000000  ( 0.000001  0.000001 -0.000001)
 60:   3114.84   0.000000    0.00  0.000000  ( 0.000011  0.000026  0.000003)
 61:   3114.93   0.000002    0.01  0.000000  ( 0.000004 -0.000438 -0.000001)
 62:   3120.78   0.000755    3.82  0.000076  ( 0.008666 -0.000013 -0.000639)
 63:   3121.20   0.000000    0.00  0.000000  ( 0.000182  0.000054 -0.000011)
 64:   3124.01   0.001792    9.06  0.000179  ( 0.000002  0.013379 -0.000001)
 65:   3124.49   0.000000    0.00  0.000000  (-0.000005 -0.000026  0.000002)
 66:   3136.17   0.000001    0.00  0.000000  (-0.000014 -0.000289 -0.000001)
 67:   3136.93   0.000002    0.01  0.000000  (-0.000456  0.000035 -0.000032)
 68:   3137.09   0.020164  101.90  0.002006  ( 0.000484  0.044784  0.000032)
 69:   3137.26   0.019957  100.85  0.001985  (-0.044451  0.000487 -0.002999)
 70:   3148.65   0.000000    0.00  0.000000  ( 0.000048  0.000012 -0.000001)
 71:   3148.96   0.001427    7.21  0.000141  (-0.011892 -0.000004  0.000140)

* The epsilon (eps) is given for a Dirac delta lineshape.
** The dipole moment derivative (T) already includes vibrational overlap.

The first frequency considered to be a vibration is 8
The total number of vibrations considered is 64


--------------------------
THERMOCHEMISTRY AT 298.15K
--------------------------

Temperature         ...   298.15 K
Pressure            ...     1.00 atm
Total Mass          ...   156.23 AMU
Quasi RRHO          ...     True
Cut-Off Frequency   ...     1.00 cm^-1

Throughout the following assumptions are being made:
  (1) The electronic state is orbitally nondegenerate
  (2) There are no thermally accessible electronically excited states
  (3) Hindered rotations indicated by low frequency modes are not
      treated as such but are treated as vibrations and this may
      cause some error
  (4) All equations used are the standard statistical mechanics
      equations for an ideal gas
  (5) All vibrations are strictly harmonic

freq.      27.36  E(vib)   ...       0.55 
freq.      35.36  E(vib)   ...       0.54 
freq.      54.30  E(vib)   ...       0.52 
freq.      55.34  E(vib)   ...       0.52 
freq.     395.07  E(vib)   ...       0.20 
freq.     397.08  E(vib)   ...       0.20 
freq.     398.56  E(vib)   ...       0.20 
freq.     398.96  E(vib)   ...       0.19 
freq.     624.14  E(vib)   ...       0.09 
freq.     624.59  E(vib)   ...       0.09 
freq.     624.76  E(vib)   ...       0.09 
freq.     624.92  E(vib)   ...       0.09 
freq.     656.24  E(vib)   ...       0.08 
freq.     661.89  E(vib)   ...       0.08 
freq.     695.31  E(vib)   ...       0.07 
freq.     696.78  E(vib)   ...       0.07 
freq.     829.64  E(vib)   ...       0.04 
freq.     831.17  E(vib)   ...       0.04 
freq.     831.71  E(vib)   ...       0.04 
freq.     836.85  E(vib)   ...       0.04 
freq.     898.22  E(vib)   ...       0.03 
freq.     898.54  E(vib)   ...       0.03 
freq.     904.48  E(vib)   ...       0.03 
freq.     906.82  E(vib)   ...       0.03 
freq.     971.90  E(vib)   ...       0.03 
freq.     972.85  E(vib)   ...       0.03 
freq.    1009.43  E(vib)   ...       0.02 
freq.    1009.92  E(vib)   ...       0.02 
freq.    1031.26  E(vib)   ...       0.02 
freq.    1031.33  E(vib)   ...       0.02 
freq.    1053.04  E(vib)   ...       0.02 
freq.    1053.77  E(vib)   ...       0.02 
freq.    1054.06  E(vib)   ...       0.02 
freq.    1054.32  E(vib)   ...       0.02 
freq.    1173.92  E(vib)   ...       0.01 
freq.    1174.22  E(vib)   ...       0.01 
freq.    1192.23  E(vib)   ...       0.01 
freq.    1192.96  E(vib)   ...       0.01 
freq.    1193.71  E(vib)   ...       0.01 
freq.    1193.76  E(vib)   ...       0.01 
freq.    1353.61  E(vib)   ...       0.01 
freq.    1354.44  E(vib)   ...       0.01 
freq.    1376.75  E(vib)   ...       0.01 
freq.    1376.84  E(vib)   ...       0.01 
freq.    1508.25  E(vib)   ...       0.00 
freq.    1508.64  E(vib)   ...       0.00 
freq.    1508.74  E(vib)   ...       0.00 
freq.    1509.06  E(vib)   ...       0.00 
freq.    1625.64  E(vib)   ...       0.00 
freq.    1625.94  E(vib)   ...       0.00 
freq.    1626.24  E(vib)   ...       0.00 
freq.    1626.66  E(vib)   ...       0.00 
freq.    3114.84  E(vib)   ...       0.00 
freq.    3114.93  E(vib)   ...       0.00 
freq.    3120.78  E(vib)   ...       0.00 
freq.    3121.20  E(vib)   ...       0.00 
freq.    3124.01  E(vib)   ...       0.00 
freq.    3124.49  E(vib)   ...       0.00 
freq.    3136.17  E(vib)   ...       0.00 
freq.    3136.93  E(vib)   ...       0.00 
freq.    3137.09  E(vib)   ...       0.00 
freq.    3137.26  E(vib)   ...       0.00 
freq.    3148.65  E(vib)   ...       0.00 
freq.    3148.96  E(vib)   ...       0.00 

------------
INNER ENERGY
------------

The inner energy is: U= E(el) + E(ZPE) + E(vib) + E(rot) + E(trans)
    E(el)   - is the total energy from the electronic structure calculation
              = E(kin-el) + E(nuc-el) + E(el-el) + E(nuc-nuc)
    E(ZPE)  - the the zero temperature vibrational energy from the frequency calculation
    E(vib)  - the the finite temperature correction to E(ZPE) due to population
              of excited vibrational states
    E(rot)  - is the rotational thermal energy
    E(trans)- is the translational thermal energy

Summary of contributions to the inner energy U:
Electronic energy                ...   -464.26532015 Eh
Zero point energy                ...      0.19782900 Eh     124.14 kcal/mol
Thermal vibrational correction   ...      0.00672466 Eh       4.22 kcal/mol
Thermal rotational correction    ...      0.00141627 Eh       0.89 kcal/mol
Thermal translational correction ...      0.00141627 Eh       0.89 kcal/mol
-----------------------------------------------------------------------
Total thermal energy                   -464.05793395 Eh


Summary of corrections to the electronic energy:
(perhaps to be used in another calculation)
Total thermal correction                  0.00955720 Eh       6.00 kcal/mol
Non-thermal (ZPE) correction              0.19782900 Eh     124.14 kcal/mol
-----------------------------------------------------------------------
Total correction                          0.20738621 Eh     130.14 kcal/mol


--------
ENTHALPY
--------

The enthalpy is H = U + kB*T
                kB is Boltzmann's constant
Total thermal energy              ...   -464.05793395 Eh 
Thermal Enthalpy correction       ...      0.00094421 Eh       0.59 kcal/mol
-----------------------------------------------------------------------
Total Enthalpy                    ...   -464.05698974 Eh


Note: Only C1 symmetry has been detected, increase convergence thresholds 
      if your molecule has a higher symmetry. Symmetry factor of 1.0 is   
      used for the rotational entropy correction. 
 

Note: Rotational entropy computed according to Herzberg 
Infrared and Raman Spectra, Chapter V,1, Van Nostrand Reinhold, 1945 
Point Group:  C1, Symmetry Number:   1  
Rotational constants in cm-1:     0.053698     0.021572     0.020591 

Vibrational entropy computed according to the QRRHO of S. Grimme
Chem.Eur.J. 2012 18 9955 using a reference frequency of 100.0 cm-1


-------
ENTROPY
-------

The entropy contributions are T*S = T*(S(el)+S(vib)+S(rot)+S(trans))
     S(el)   - electronic entropy
     S(vib)  - vibrational entropy
     S(rot)  - rotational entropy
     S(trans)- translational entropy
The entropies will be listed as multiplied by the temperature to get
units of energy

Electronic entropy                ...      0.00000000 Eh      0.00 kcal/mol
Vibrational entropy               ...      0.01168805 Eh      7.33 kcal/mol
Rotational entropy                ...      0.01453556 Eh      9.12 kcal/mol
Translational entropy             ...      0.01950311 Eh     12.24 kcal/mol
-----------------------------------------------------------------------
Final entropy term                ...      0.04572672 Eh     28.69 kcal/mol

In case the symmetry of your molecule has not been determined correctly
or in case you have a reason to use a different symmetry number we print 
out the resulting rotational entropy values for sn=1,12:

 non-linear molecules -----------------------------------
|  sn= 1 | S(rot)=       0.01453556 Eh      9.12 kcal/mol|
|  sn= 2 | S(rot)=       0.01388111 Eh      8.71 kcal/mol|
|  sn= 3 | S(rot)=       0.01349828 Eh      8.47 kcal/mol|
|  sn= 4 | S(rot)=       0.01322665 Eh      8.30 kcal/mol|
|  sn= 5 | S(rot)=       0.01301596 Eh      8.17 kcal/mol|
|  sn= 6 | S(rot)=       0.01284382 Eh      8.06 kcal/mol|
|  sn= 7 | S(rot)=       0.01269827 Eh      7.97 kcal/mol|
|  sn= 8 | S(rot)=       0.01257220 Eh      7.89 kcal/mol|
|  sn= 9 | S(rot)=       0.01246099 Eh      7.82 kcal/mol|
|  sn=10 | S(rot)=       0.01236151 Eh      7.76 kcal/mol|
|  sn=11 | S(rot)=       0.01227152 Eh      7.70 kcal/mol|
|  sn=12 | S(rot)=       0.01218936 Eh      7.65 kcal/mol|
 linear molecules ---------------------------------------
|  Dinfh | S(rot)=       0.00899195 Eh      5.64 kcal/mol|
|  Cinfv | S(rot)=       0.00964641 Eh      6.05 kcal/mol|
 --------------------------------------------------------


-------------------
GIBBS FREE ENERGY
-------------------

The Gibbs free energy is G = H - T*S

Total enthalpy                    ...   -464.05698974 Eh 
Total entropy correction          ...     -0.04572672 Eh    -28.69 kcal/mol
-----------------------------------------------------------------------
Final Gibbs free energy         ...   -464.10271646 Eh

For completeness - the Gibbs free energy minus the electronic energy
G-E(el)                           ...      0.16260369 Eh    102.04 kcal/mol


Maximum memory used throughout the entire PROP-calculation: 44.4 MB

--------------------------------
SUGGESTED CITATIONS FOR THIS RUN
--------------------------------

Below you find a list of papers that are relevant to this ORCA run
We neither can nor want to force you to cite these papers, but we appreciate if you do
You receive ORCA, which is the product of decades of hard work by many enthusiastic individuals, for free
The only thing we kindly ask in return is that you cite our papers,
We deeply appreciate it, if you show your appreciation for ORCA by not just citing the generic ORCA reference.

Please note that relegating all ORCA citations to the supporting information does *not* help us.
SI sections are not indexed - citations you put there will not count into any citation statistics
But we need these citations in order to attract the funding resources that allow us to do what we are doing

Therefore, if you are a happy ORCA user, please consider citing a few of the papers listed below in the main body of your paper

In addition to the list printed below, the program has created the file dimero_PD.bibtex that contains the list in bibtex format
You can import this file easily into all common literature databanks and citation aid programs

It goes without saying that in many instances, there are alternative algorithms to achieve similar
results as the ones you have gotten from ORCA. It is, of course, also the case that in some instances
ORCA just re-implements algorithms worked out by others. We are fully aware of that and we are also
fully appreciative of our colleagues work. Hence this citation list should not be read as indicating
that the listed papers, which are focused on our own work, are the only ones worth citing. It simply
meant to make it easier for users to cite ORCA specific papers. It is not a substitute for doing your
own literature research and citing the relevant literature in a scientifically appropriate manner.

List of essential papers. We consider these as the minimum necessary citations

  1. Neese, F.
     Software update: the ORCA program system, version 6.0
     WIRES Comput. Molec. Sci. 2025 15(1), e70019
     doi.org/10.1002/wcms.70019

List of papers to cite with high priority. The work reported in these papers was absolutely
necessary for this run to complete.
Our perspective: the developers of density functionals and basis sets usually get cited in chemistry papers
Good! But without the algorithms to do something with them, the functionals or basis sets would not do anything.
Hence, in our opinion, the algorithm design and method developments papers are equally worthy of getting cited

  1. Neese, F.
     An improvement of the resolution of the identity approximation for the formation of the Coulomb matrix
     J. Comp. Chem. 2003 24(14), 1740-1747
     doi.org/10.1002/jcc.10318
  2. Grimme, S.; Antony, J.; Ehrlich, S.; Krieg, H.
     A consistent and accurate ab initio parametrization of density functional dispersion correction (DFT-D) for the 94 elements H-Pu
     J. Chem. Phys. 2010 132 , 154104
     doi.org/10.1063/1.3382344
  3. Grimme, S.; Ehrlich, S.; Goerigk, L.
     Effect of the damping function in dispersion corrected density functional theory
     J. Comput. Chem. 2011 32(7), 1456-1465
     doi.org/10.1002/jcc.21759
  4. Bykov, D.; Petrenko, T.; Izsak, R.; Kossmann, S.; Becker, U.; Valeev, E.; Neese, F.
     Efficient implementation of the analytic second derivatives of Hartree-Fock and hybrid DFT energies: a detailed analysis of different approximations
     Molec. Phys. 2015 113 , 1961-1977
     doi.org/10.1080/00268976.2015.1025114
  5. Neese, F.
     The SHARK Integral Generation and Digestion System
     J. Comp. Chem. 2022 44(3), 381
     doi.org/10.1002/jcc.26942

List of suggested additional citations. These are papers that are important in the 'surrounding' of 
of this run, or papers that preceded the highly important papers. If you like your results we are grateful for a citation.

  1. Neese, F.
     The ORCA program system
     WIRES Comput. Molec. Sci. 2012 2(1), 73-78
     doi.org/10.1002/wcms.81
  2. Neese, F.
     Software update: the ORCA program system, version 4.0
     WIRES Comput. Molec. Sci. 2018 8(1), 1-6
     doi.org/10.1002/wcms.1327
  3. Neese, F.; Wennmohs, F.; Becker, U.; Riplinger, C.
     The ORCA quantum chemistry program package
     J. Chem. Phys. 2020 152(22), 224108
     doi.org/10.1063/5.0004608
  4. Neese, F.
     Software update: The ORCA program system—Version 5.0
     WIRES Comput. Molec. Sci. 2022 12(1), e1606
     doi.org/10.1002/wcms.1606

List of optional additional citations

  1. Neese, F.
     Approximate second-order SCF convergence for spin unrestricted wavefunctions
     Chem. Phys. Lett. 2000 325(1-3), 93-98
     doi.org/10.1016/s0009-2614(00)00662-x

Timings for individual modules:

Sum of individual times          ...      273.062 sec (=   4.551 min)
Startup calculation              ...        6.752 sec (=   0.113 min)   2.5 %
SCF iterations                   ...       27.511 sec (=   0.459 min)  10.1 %
Property integrals               ...       97.732 sec (=   1.629 min)  35.8 %
SCF Response                     ...       70.422 sec (=   1.174 min)  25.8 %
Property calculations            ...       48.549 sec (=   0.809 min)  17.8 %
SCF Gradient evaluation          ...       19.743 sec (=   0.329 min)   7.2 %
Geometry relaxation              ...        2.353 sec (=   0.039 min)   0.9 %
                             ****ORCA TERMINATED NORMALLY****
TOTAL RUN TIME: 0 days 0 hours 4 minutes 34 seconds 445 msec
