24
Coordinates from ORCA-job dimero_PD E -464.264496486363
  C      -0.800000      1.395248     -1.800000
  C       0.408320      0.697624     -1.800000
  C       0.408320     -0.697624     -1.800000
  C      -0.800000     -1.395248     -1.800000
  C      -2.008320     -0.697624     -1.800000
  C      -2.008320      0.697624     -1.800000
  H      -0.800000      2.482360     -1.800000
  H       1.349787      1.241180     -1.800000
  H       1.349787     -1.241180     -1.800000
  H      -0.800000     -2.482360     -1.800000
  H      -2.949787     -1.241180     -1.800000
  H      -2.949787      1.241180     -1.800000
  C       0.800000      1.395248      1.800000
  C       2.008320      0.697624      1.800000
  C       2.008320     -0.697624      1.800000
  C       0.800000     -1.395248      1.800000
  C      -0.408320     -0.697624      1.800000
  C      -0.408320      0.697624      1.800000
  H       0.800000      2.482360      1.800000
  H       2.949787      1.241180      1.800000
  H       2.949787     -1.241180      1.800000
  H       0.800000     -2.482360      1.800000
  H      -1.349787     -1.241180      1.800000
  H      -1.349787      1.241180      1.800000
24
Coordinates from ORCA-job dimero_PD E -464.265269372246
  C      -0.799483      1.389377     -1.800029
  C       0.404141      0.694626     -1.800880
  C       0.404148     -0.694670     -1.800885
  C      -0.799492     -1.389382     -1.800120
  C      -2.003100     -0.694913     -1.799060
  C      -2.003084      0.694894     -1.799135
  H      -0.799436      2.471749     -1.800393
  H       1.341249      1.235753     -1.801872
  H       1.341252     -1.235800     -1.801877
  H      -0.799431     -2.471748     -1.800622
  H      -2.940582     -1.236348     -1.799648
  H      -2.940562      1.236332     -1.799728
  C       0.799487      1.389434      1.800062
  C       2.003070      0.694908      1.799169
  C       2.003065     -0.694895      1.799136
  C       0.799477     -1.389387      1.800070
  C      -0.404121     -0.694641      1.800862
  C      -0.404117      0.694653      1.800879
  H       0.799452      2.471805      1.800401
  H       2.940558      1.236325      1.799763
  H       2.940551     -1.236323      1.799697
  H       0.799432     -2.471756      1.800489
  H      -1.341236     -1.235756      1.801854
  H      -1.341235      1.235760      1.801866
24
Coordinates from ORCA-job dimero_PD E -464.265315750031
  C      -0.799180      1.387312     -1.799957
  C       0.402799      0.693508     -1.800965
  C       0.402801     -0.693544     -1.800937
  C      -0.799195     -1.387317     -1.799985
  C      -2.001337     -0.694084     -1.798408
  C      -2.001321      0.694072     -1.798518
  H      -0.799013      2.469421     -1.800085
  H       1.339436      1.234288     -1.801556
  H       1.339437     -1.234322     -1.801603
  H      -0.799010     -2.469429     -1.800375
  H      -2.938488     -1.235442     -1.799169
  H      -2.938469      1.235440     -1.799272
  C       0.799187      1.387380      1.799944
  C       2.001302      0.694082      1.798549
  C       2.001301     -0.694069      1.798526
  C       0.799183     -1.387342      1.799975
  C      -0.402776     -0.693527      1.800918
  C      -0.402770      0.693534      1.800910
  H       0.799030      2.469488      1.800054
  H       2.938465      1.235424      1.799314
  H       2.938460     -1.235415      1.799254
  H       0.799016     -2.469451      1.800220
  H      -1.339428     -1.234277      1.801527
  H      -1.339429      1.234272      1.801636
24
Coordinates from ORCA-job dimero_PD E -464.265320150999
  C      -0.799089      1.387122     -1.799914
  C       0.402763      0.693387     -1.800833
  C       0.402760     -0.693403     -1.800772
  C      -0.799105     -1.387124     -1.799853
  C      -2.001210     -0.694078     -1.798066
  C      -2.001198      0.694078     -1.798188
  H      -0.798845      2.469371     -1.799674
  H       1.339527      1.234165     -1.800664
  H       1.339527     -1.234176     -1.800752
  H      -0.798842     -2.469376     -1.799942
  H      -2.938441     -1.235523     -1.798827
  H      -2.938424      1.235534     -1.798928
  C       0.799097      1.387178      1.799845
  C       2.001180      0.694080      1.798198
  C       2.001183     -0.694073      1.798198
  C       0.799099     -1.387161      1.799899
  C      -0.402737     -0.693401      1.800765
  C      -0.402734      0.693397      1.800725
  H       0.798852      2.469425      1.799604
  H       2.938422      1.235511      1.798960
  H       2.938423     -1.235503      1.798935
  H       0.798849     -2.469409      1.799820
  H      -1.339525     -1.234139      1.800630
  H      -1.339530      1.234119      1.800833
