24
Coordinates from ORCA-job dimero_PD E -464.265320150999
  C          -0.79908927874076      1.38712222763287     -1.79991371321626
  C           0.40276259366238      0.69338679913895     -1.80083342023438
  C           0.40275978307381     -0.69340257616848     -1.80077195634117
  C          -0.79910533378469     -1.38712388244037     -1.79985290458550
  C          -2.00121046829295     -0.69407845916315     -1.79806645282723
  C          -2.00119766959915      0.69407815940586     -1.79818776347624
  H          -0.79884545403061      2.46937102993762     -1.79967365848360
  H           1.33952694116468      1.23416514127970     -1.80066365646615
  H           1.33952658579402     -1.23417593473258     -1.80075202514307
  H          -0.79884153116514     -2.46937598097977     -1.79994170564205
  H          -2.93844070894313     -1.23552296349349     -1.79882663722429
  H          -2.93842361776183      1.23553354766152     -1.79892813035022
  C           0.79909708661150      1.38717759327257      1.79984515285201
  C           2.00118000809379      0.69407988241535      1.79819819837786
  C           2.00118322972120     -0.69407267454974      1.79819820117897
  C           0.79909884587017     -1.38716053211391      1.79989867221013
  C          -0.40273709028205     -0.69340114881170      1.80076547256622
  C          -0.40273375274834      0.69339656657649      1.80072503776506
  H           0.79885235638931      2.46942509289533      1.79960381664532
  H           2.93842154784494      1.23551054235755      1.79895999650671
  H           2.93842266483148     -1.23550308082964      1.79893475495355
  H           0.79884866362376     -2.46940926134526      1.79982027886298
  H          -1.33952529288730     -1.23413868426465      1.80062961610608
  H          -1.33953010844508      1.23411859631894      1.80083282596526
