DAV:    1    -9.475100000E+00   -1.35000E+00   -4.05000E-01  1024   1.162E+00
DAV:    2    -1.067510000E+01   -1.50000E-01   -4.50000E-02  1024   3.873E-01
DAV:    3    -1.081010000E+01   -1.50000E-02   -4.50000E-03  1024   1.225E-01
DAV:    4    -1.082360000E+01   -1.50000E-03   -4.50000E-04  1024   3.873E-02
DAV:    5    -1.082495000E+01   -1.50000E-04   -4.50000E-05  1024   1.225E-02
DAV:    6    -1.082508500E+01   -1.50000E-05   -4.50000E-06  1024   3.873E-03
DAV:    7    -1.082509850E+01   -1.50000E-06   -4.50000E-07  1024   1.225E-03
DAV:    8    -1.082509985E+01   -1.50000E-07   -4.50000E-08  1024   3.873E-04
   1 F= -1.08255000E+01 E0= -1.08253000E+01  d E =-0.000000E+00  mag=     0.0000
DAV:    1    -1.046630000E+01   -3.60000E-01   -1.08000E-01  1024   6.000E-01
DAV:    2    -1.078630000E+01   -4.00000E-02   -1.20000E-02  1024   2.000E-01
DAV:    3    -1.082230000E+01   -4.00000E-03   -1.20000E-03  1024   6.325E-02
DAV:    4    -1.082590000E+01   -4.00000E-04   -1.20000E-04  1024   2.000E-02
DAV:    5    -1.082626000E+01   -4.00000E-05   -1.20000E-05  1024   6.325E-03
   2 F= -1.08267000E+01 E0= -1.08265000E+01  d E =-1.200000E-03  mag=     0.0000
