12
Properties=species:S:1:pos:R:3:forces:R:3 charge=0 spin=1 programa=fairchem-core versao=2.22.0 modelo=uma-s-1p2p1 tarefa=omol ase=3.29.0 convergiu=T fmax_criterio=0.01 energy=-6319.222424199921 free_energy=-6319.222424199921 stress="-0.002497481966045992 -2.0206891092191293e-05 1.3687882673487438e-08 -2.0206891092191293e-05 -0.0025380269251698007 -5.6718159587918084e-08 1.3687882673487438e-08 -5.6718159587918084e-08 3.974479540701407e-15" pbc="F F F"
C       -0.00000009       1.38798348      -0.00000001       0.00001222       0.00226918       0.00000021
C        1.20202889       0.69399152       0.00000000       0.00196094       0.00115613       0.00000023
C        1.20202879      -0.69399153       0.00000001       0.00198563      -0.00115690       0.00000001
C        0.00000008      -1.38798353      -0.00000000      -0.00001639      -0.00225904      -0.00000027
C       -1.20202893      -0.69399153       0.00000001      -0.00195464      -0.00116031      -0.00000003
C       -1.20202884       0.69399160       0.00000001      -0.00197579       0.00114904      -0.00000006
H        0.00000003       2.47047714       0.00000000      -0.00000093      -0.00093844      -0.00000003
H        2.13949597       1.23523851       0.00000000      -0.00081196      -0.00047009      -0.00000023
H        2.13949600      -1.23523857      -0.00000000      -0.00082253       0.00047486       0.00000009
H        0.00000002      -2.47047706      -0.00000000      -0.00000027       0.00093432      -0.00000001
H       -2.13949595      -1.23523855      -0.00000001       0.00081148       0.00047061       0.00000014
H       -2.13949596       1.23523852       0.00000000       0.00081224      -0.00046936      -0.00000007
