24
Properties=species:S:1:pos:R:3:forces:R:3 charge=0 spin=1 programa=fairchem-core versao=2.22.0 modelo=uma-s-1p2p1 tarefa=omol ase=3.29.0 convergiu=T fmax_criterio=0.01 energy=-12638.526842738744 free_energy=-12638.526842738744 stress="-0.015072128441655857 -2.6991403104909037e-05 -9.333388231384254e-08 -2.6991403104909037e-05 -0.015129696745291854 -1.7653917994131518e-08 -9.333388231384254e-08 -1.7653917994131518e-08 0.00962001423791392" pbc="F F F"
C        0.00000800       1.38764640      -1.95051504      -0.00001407       0.00675188      -0.00488983
C        1.20174117       0.69381603      -1.95051504       0.00582200       0.00342019      -0.00488923
C        1.20173272      -0.69383011      -1.95051503       0.00589638      -0.00335877      -0.00488953
C       -0.00000784      -1.38764635      -1.95051505       0.00000046      -0.00676572      -0.00488958
C       -1.20174117      -0.69381615      -1.95051505      -0.00582223      -0.00340760      -0.00488968
C       -1.20173297       0.69383018      -1.95051505      -0.00587132       0.00335414      -0.00488944
H       -0.00000365       2.47038394      -1.94947576       0.00002697      -0.00277684       0.00530341
H        2.13941337       1.23519503      -1.94947577      -0.00239086      -0.00141273       0.00530332
H        2.13941709      -1.23518877      -1.94947577      -0.00242873       0.00136955       0.00530337
H        0.00000366      -2.47038395      -1.94947577      -0.00002526       0.00278072       0.00530339
H       -2.13941337      -1.23519503      -1.94947575       0.00238853       0.00140941       0.00530340
H       -2.13941701       1.23518877      -1.94947577       0.00241815      -0.00136426       0.00530339
C       -0.00000806       1.38764648       1.95051504       0.00002718       0.00675309       0.00488995
C        1.20173286       0.69383000       1.95051505       0.00588039       0.00337507       0.00488938
C        1.20174105      -0.69381609       1.95051503       0.00583763      -0.00341898       0.00488971
C        0.00000810      -1.38764635       1.95051505      -0.00002372      -0.00676459       0.00488924
C       -1.20173291      -0.69383010       1.95051504      -0.00587273      -0.00336226       0.00488979
C       -1.20174101       0.69381605       1.95051505      -0.00584254       0.00342039       0.00488932
H        0.00000361       2.47038389       1.94947576      -0.00002706      -0.00277724      -0.00530352
H        2.13941708       1.23518878       1.94947576      -0.00242873      -0.00137034      -0.00530343
H        2.13941342      -1.23519508       1.94947577      -0.00239470       0.00141406      -0.00530328
H       -0.00000363      -2.47038394       1.94947576       0.00002538       0.00278088      -0.00530339
H       -2.13941703      -1.23518874       1.94947576       0.00242135       0.00136685      -0.00530338
H       -2.13941347       1.23519512       1.94947576       0.00239753      -0.00141692      -0.00530336
