24
Properties=species:S:1:pos:R:3:forces:R:3 charge=0 spin=1 programa=fairchem-core versao=2.22.0 modelo=uma-s-1p2p1 tarefa=omol ase=3.29.0 convergiu=T fmax_criterio=0.01 energy=-12638.56398668719 free_energy=-12638.56398668719 stress="-0.04985488827606559 0.013361659351365258 0.0008468450406167062 0.013361659351365258 0.017013046872834447 0.002637060818883024 0.0008468450406167062 0.002637060818883024 0.04765866418745827" pbc="F F F"
C       -0.00189215       1.39082259      -2.49413082       0.00360443      -0.00238635       0.00279570
C        1.19985955       0.69584122      -2.49212078       0.00612917      -0.00498622      -0.00096775
C        1.19949818      -0.69266516      -2.49461909       0.00246086      -0.00395019       0.00099807
C       -0.00277688      -1.38715014      -2.49849600       0.00246763       0.00163548       0.00032057
C       -1.20456822      -0.69202259      -2.50064732      -0.00083522      -0.00027608       0.00241605
C       -1.20403560       0.69646887      -2.49833768      -0.00074239      -0.00085214       0.00072149
H       -0.00091881       2.47315728      -2.48974044      -0.00399240      -0.00067954       0.00290324
H        2.13763159       1.23648126      -2.48715879       0.00002690       0.00223764      -0.00071274
H        2.13708178      -1.23381207      -2.49243340      -0.00277609      -0.00134232       0.00236115
H       -0.00325529      -2.46971550      -2.49741214       0.00105278       0.00878524       0.00160248
H       -2.14239155      -1.23258044      -2.50282777       0.00002764      -0.00222752       0.00155356
H       -2.14122542       1.23774646      -2.49819149      -0.00666209       0.00489894      -0.00080451
C        0.00077161      -0.01292315       3.88139115       0.00208289       0.00798068       0.00000649
C        1.20198178      -0.01866800       3.18571599       0.00287605      -0.00281476      -0.00130338
C        1.19978660      -0.00914492       1.79752641       0.00175019       0.00442114      -0.00265151
C       -0.00194016       0.00359319       1.10290615      -0.00023681      -0.00441143       0.00067769
C       -1.20233157       0.01085411       1.79987624      -0.00136582       0.00512428       0.00088173
C       -1.20164228       0.00497876       3.18803631      -0.00068026      -0.00793329       0.00293199
H        0.00170654      -0.02133866       4.96393300       0.00008566       0.00419112       0.00006547
H        2.13997561      -0.03082911       3.72626609      -0.00006713       0.00116618      -0.00067465
H        2.13600073      -0.01027459       1.25349553       0.00299120      -0.00890183      -0.00208788
H       -0.00275598       0.00711830       0.02090260      -0.00115443       0.00549045      -0.00345247
H       -2.13987804       0.02178512       1.25840307      -0.00320015       0.00174433      -0.00632205
H       -2.13825343       0.01395199       3.73087909      -0.00384265      -0.00691378      -0.00125872
