24
Properties=species:S:1:pos:R:3:forces:R:3 charge=0 spin=1 programa=fairchem-core versao=2.22.0 modelo=uma-s-1p2p1 tarefa=omol ase=3.29.0 convergiu=T fmax_criterio=0.01 energy=-12638.576478947018 free_energy=-12638.576478947018 stress="-0.002657640235794084 -0.006590257060044267 -0.0003065949267779355 -0.006590257060044267 0.010550315382377613 -0.00025949466231218674 -0.0003065949267779355 -0.00025949466231218674 0.0009583722508456211" pbc="F F F"
C       -0.80365774       1.38939505      -1.75584699       0.00359452      -0.00325098      -0.00394981
C        0.39832243       0.69478944      -1.73556195       0.00440493      -0.00439288       0.00225706
C        0.39799730      -0.69213655      -1.73982309      -0.00214160      -0.00509200       0.00513895
C       -0.80447428      -1.38586745      -1.76415825       0.00286392       0.00097784       0.00327392
C       -2.00589585      -0.69216786      -1.78131406      -0.00562315      -0.00387235      -0.00219762
C       -2.00558246       0.69657707      -1.77701923       0.00289911       0.00256311      -0.00511969
H       -0.80270786       2.47216867      -1.75141454      -0.00101419      -0.00009074       0.00423189
H        1.33614728       1.23444535      -1.70589321      -0.00142618       0.00255395      -0.00268100
H        1.33510731      -1.23339507      -1.71340461      -0.00143373       0.00419602      -0.00150120
H       -0.80473470      -2.46876791      -1.76349186       0.00167152       0.00416266      -0.00321215
H       -2.94366259      -1.23309616      -1.80009798       0.00001637      -0.00011794       0.00264495
H       -2.94293116       1.23805745      -1.79250345      -0.00388704       0.00234959       0.00137524
C        0.80918662       1.38421581       1.76296225       0.00311958      -0.00193861      -0.00014640
C        2.00704496       0.68407542       1.77815928      -0.00087798       0.00351109      -0.00818895
C        1.99908331      -0.70467172       1.77161587       0.00084406      -0.00024645       0.00471493
C        0.79323633      -1.39064650       1.75079442      -0.00318375       0.00125841       0.00056461
C       -0.40511525      -0.68967178       1.73289017       0.00244281       0.00063746       0.00720740
C       -0.39705296       0.69717034       1.73942279      -0.00083320       0.00377956      -0.00510422
H        0.81503222       2.46702695       1.76386807      -0.00000586      -0.00148660       0.00268819
H        2.94778154       1.21986445       1.79481841      -0.00016170       0.00066338       0.00201962
H        2.93362876      -1.25135250       1.78453710      -0.00153092      -0.00052543      -0.00052296
H        0.78647460      -2.47333797       1.74367145       0.00023555      -0.00198259      -0.00157937
H       -1.34566031      -1.22465400       1.70534321      -0.00005262      -0.00055102      -0.00247455
H       -1.33113882       1.24365431       1.71566210       0.00007960      -0.00310543       0.00056116
