24
Properties=species:S:1:pos:R:3:forces:R:3 charge=0 spin=1 programa=fairchem-core versao=2.22.0 modelo=uma-s-1p2p1 tarefa=omol ase=3.29.0 convergiu=T fmax_criterio=0.01 energy=-12638.576493805054 free_energy=-12638.576493805054 stress="0.023855667031746283 0.006326750438070497 0.00026475496842516544 0.006326750438070497 -0.029990796158624322 0.0001226811381046522 0.00026475496842516544 0.0001226811381046522 0.0008599244155332031" pbc="F F F"
C       -0.80170182       1.38737866      -1.75865133      -0.00677119       0.00402693      -0.00162077
C        0.40045804       0.69332511      -1.73648736       0.00258261       0.00201625       0.00024393
C        0.40044652      -0.69341653      -1.73661792      -0.00306800      -0.00266908      -0.00044329
C       -0.80187374      -1.38736914      -1.75910619       0.00077781      -0.00399626      -0.00082631
C       -2.00370854      -0.69439624      -1.77831450      -0.00547399       0.00164134       0.00115175
C       -2.00368277       0.69448577      -1.77809464       0.00017688      -0.00097864       0.00207429
H       -0.80157929       2.47018675      -1.75590884       0.00201741      -0.00056244       0.00066536
H        1.33808505       1.23338571      -1.70928180      -0.00053955       0.00309552       0.00007366
H        1.33799302      -1.23353742      -1.70948402       0.00084438      -0.00385299       0.00012622
H       -0.80170761      -2.47017843      -1.75660477       0.00143281       0.00059637       0.00057117
H       -2.94138841      -1.23582942      -1.79431143       0.00462559       0.00218485      -0.00080561
H       -2.94128827       1.23596525      -1.79383294       0.00336253      -0.00150048      -0.00096140
C        0.80174154       1.38739028       1.75865212       0.00165519       0.00254731       0.00152829
C        2.00365285       0.69447576       1.77809404       0.00367831       0.00033710      -0.00200635
C        2.00374250      -0.69437620       1.77831502       0.00112500      -0.00092181      -0.00122335
C        0.80183399      -1.38738194       1.75910551       0.00434551      -0.00240010       0.00091317
C       -0.40041662      -0.69340548       1.73661857      -0.00076065      -0.00407237       0.00035979
C       -0.40049172       0.69330530       1.73648670       0.00172428       0.00457152      -0.00015348
H        0.80157717       2.47018286       1.75590871      -0.00175290      -0.00008471      -0.00066183
H        2.94129722       1.23597004       1.79383309      -0.00449940      -0.00210759       0.00093997
H        2.94138196      -1.23582796       1.79431150      -0.00381731       0.00198727       0.00082055
H        0.80170963      -2.47017493       1.75660492      -0.00169960       0.00009622      -0.00057594
H       -1.33800150      -1.23354226       1.70948371       0.00028480      -0.00324147      -0.00009409
H       -1.33807914       1.23338454       1.70928185      -0.00025046       0.00328731      -0.00009574
