24
Properties=species:S:1:pos:R:3 pbc="F F F"
C        0.00000000       1.39524800      -2.50000000
C        1.20832000       0.69762400      -2.50000000
C        1.20832000      -0.69762400      -2.50000000
C        0.00000000      -1.39524800      -2.50000000
C       -1.20832000      -0.69762400      -2.50000000
C       -1.20832000       0.69762400      -2.50000000
H        0.00000000       2.48236000      -2.50000000
H        2.14978700       1.24118000      -2.50000000
H        2.14978700      -1.24118000      -2.50000000
H        0.00000000      -2.48236000      -2.50000000
H       -2.14978700      -1.24118000      -2.50000000
H       -2.14978700       1.24118000      -2.50000000
C        0.00000000       0.00000000       3.89524800
C        1.20832000       0.00000000       3.19762400
C        1.20832000      -0.00000000       1.80237600
C        0.00000000      -0.00000000       1.10475200
C       -1.20832000      -0.00000000       1.80237600
C       -1.20832000       0.00000000       3.19762400
H        0.00000000       0.00000000       4.98236000
H        2.14978700       0.00000000       3.74118000
H        2.14978700      -0.00000000       1.25882000
H        0.00000000      -0.00000000       0.01764000
H       -2.14978700      -0.00000000       1.25882000
H       -2.14978700       0.00000000       3.74118000
