24
Properties=species:S:1:pos:R:3 pbc="F F F"
C       -0.79308832       1.41168036      -1.79339126
C        0.38225686       0.71573112      -1.79107251
C        0.39758094      -0.68600164      -1.79270855
C       -0.79411735      -1.39467956      -1.78906574
C       -2.02304908      -0.70088220      -1.80964239
C       -1.99634308       0.69841844      -1.80584914
H       -0.81563817       2.47721616      -1.79983716
H        1.34427494       1.26706128      -1.77986551
H        1.29556375      -1.27896026      -1.80349544
H       -0.80844381      -2.47808714      -1.79565356
H       -2.90743022      -1.26342042      -1.80755210
H       -2.90893157       1.25411406      -1.78673873
C        0.78971987       1.36228650       1.80334929
C        2.01050028       0.67307696       1.78633547
C        2.00687913      -0.71651903       1.79803460
C        0.80190966      -1.39453628       1.78987417
C       -0.39644504      -0.67980066       1.80641697
C       -0.42468460       0.71225705       1.78997120
H        0.81758321       2.46092425       1.81828934
H        2.94938573       1.21620502       1.79372201
H        2.95086905      -1.23572417       1.78035624
H        0.77785254      -2.47836831       1.79066501
H       -1.34507689      -1.22598961       1.76702425
H       -1.34469924       1.26567294       1.79404946
