24
Properties=species:S:1:pos:R:3 pbc="F F F"
C        0.00691168       1.41168036      -1.94339126
C        1.18225686       0.71573112      -1.94107251
C        1.19758094      -0.68600164      -1.94270855
C        0.00588265      -1.39467956      -1.93906574
C       -1.22304908      -0.70088220      -1.95964239
C       -1.19634308       0.69841844      -1.95584914
H       -0.01563817       2.47721616      -1.94983716
H        2.14427494       1.26706128      -1.92986551
H        2.09556375      -1.27896026      -1.95349544
H       -0.00844381      -2.47808714      -1.94565356
H       -2.10743022      -1.26342042      -1.95755210
H       -2.10893157       1.25411406      -1.93673873
C       -0.01028013       1.36228650       1.95334929
C        1.21050028       0.67307696       1.93633547
C        1.20687913      -0.71651903       1.94803460
C        0.00190966      -1.39453628       1.93987417
C       -1.19644504      -0.67980066       1.95641697
C       -1.22468460       0.71225705       1.93997120
H        0.01758321       2.46092425       1.96828934
H        2.14938573       1.21620502       1.94372201
H        2.15086905      -1.23572417       1.93035624
H       -0.02214746      -2.47836831       1.94066501
H       -2.14507689      -1.22598961       1.91702425
H       -2.14469924       1.26567294       1.94404946
