24
Properties=species:S:1:pos:R:3 pbc="F F F"
C        0.00691168       1.41168036      -2.49339126
C        1.18225686       0.71573112      -2.49107251
C        1.19758094      -0.68600164      -2.49270855
C        0.00588265      -1.39467956      -2.48906574
C       -1.22304908      -0.70088220      -2.50964239
C       -1.19634308       0.69841844      -2.50584914
H       -0.01563817       2.47721616      -2.49983716
H        2.14427494       1.26706128      -2.47986551
H        2.09556375      -1.27896026      -2.50349544
H       -0.00844381      -2.47808714      -2.49565356
H       -2.10743022      -1.26342042      -2.50755210
H       -2.10893157       1.25411406      -2.48673873
C       -0.01028013      -0.03296150       3.89859729
C        1.21050028      -0.02454704       3.18395947
C        1.20687913      -0.01889503       1.80041060
C        0.00190966       0.00071172       1.09462617
C       -1.19644504       0.01782334       1.80879297
C       -1.22468460       0.01463305       3.18759520
H        0.01758321      -0.02143575       5.00064934
H        2.14938573      -0.02497498       3.73490201
H        2.15086905       0.00545583       1.23917624
H       -0.02214746       0.00399169       0.00830501
H       -2.14507689       0.01519039       1.22584425
H       -2.14469924       0.02449294       3.73522946
