24
Properties=species:S:1:pos:R:3 pbc="F F F"
C       -0.79621893       1.38479303      -1.80826127
C        0.35949065       0.73361815      -1.77711668
C        0.40181154      -0.68214787      -1.79437579
C       -0.81107646      -1.37569665      -1.80621113
C       -2.01489648      -0.71346694      -1.79090084
C       -2.01030396       0.70852977      -1.81214371
H       -0.79746344       2.46451452      -1.78317070
H        1.35354770       1.24779142      -1.79178992
H        1.32957185      -1.22551638      -1.75886594
H       -0.83276885      -2.51694823      -1.83009663
H       -2.93295782      -1.23860569      -1.77843315
H       -2.93533838       1.24539144      -1.79431924
C        0.79660479       1.41261720       1.77740568
C        1.99988282       0.70248278       1.83602842
C        1.99303072      -0.71920521       1.78873426
C        0.81938544      -1.39994811       1.82648694
C       -0.44577059      -0.67505354       1.82069732
C       -0.43669331       0.70069564       1.82431515
H        0.80175838       2.50235403       1.84749774
H        2.95526565       1.23557235       1.78457896
H        2.96274829      -1.24511460       1.79642507
H        0.79789480      -2.46936261       1.77867321
H       -1.38038453      -1.28985753       1.82397342
H       -1.34831113       1.27138239       1.79982087
