24
Properties=species:S:1:pos:R:3 pbc="F F F"
C        0.00378107       1.38479303      -1.95826127
C        1.15949065       0.73361815      -1.92711668
C        1.20181154      -0.68214787      -1.94437579
C       -0.01107646      -1.37569665      -1.95621113
C       -1.21489648      -0.71346694      -1.94090084
C       -1.21030396       0.70852977      -1.96214371
H        0.00253656       2.46451452      -1.93317070
H        2.15354770       1.24779142      -1.94178992
H        2.12957185      -1.22551638      -1.90886594
H       -0.03276885      -2.51694823      -1.98009663
H       -2.13295782      -1.23860569      -1.92843315
H       -2.13533838       1.24539144      -1.94431924
C       -0.00339521       1.41261720       1.92740568
C        1.19988282       0.70248278       1.98602842
C        1.19303072      -0.71920521       1.93873426
C        0.01938544      -1.39994811       1.97648694
C       -1.24577059      -0.67505354       1.97069732
C       -1.23669331       0.70069564       1.97431515
H        0.00175838       2.50235403       1.99749774
H        2.15526565       1.23557235       1.93457896
H        2.16274829      -1.24511460       1.94642507
H       -0.00210520      -2.46936261       1.92867321
H       -2.18038453      -1.28985753       1.97397342
H       -2.14831113       1.27138239       1.94982087
