24
Properties=species:S:1:pos:R:3 pbc="F F F"
C        0.00000000       1.39524800      -1.95000000
C        1.20832000       0.69762400      -1.95000000
C        1.20832000      -0.69762400      -1.95000000
C        0.00000000      -1.39524800      -1.95000000
C       -1.20832000      -0.69762400      -1.95000000
C       -1.20832000       0.69762400      -1.95000000
H        0.00000000       2.48236000      -1.95000000
H        2.14978700       1.24118000      -1.95000000
H        2.14978700      -1.24118000      -1.95000000
H        0.00000000      -2.48236000      -1.95000000
H       -2.14978700      -1.24118000      -1.95000000
H       -2.14978700       1.24118000      -1.95000000
C        0.00000000       1.39524800       1.95000000
C        1.20832000       0.69762400       1.95000000
C        1.20832000      -0.69762400       1.95000000
C        0.00000000      -1.39524800       1.95000000
C       -1.20832000      -0.69762400       1.95000000
C       -1.20832000       0.69762400       1.95000000
H        0.00000000       2.48236000       1.95000000
H        2.14978700       1.24118000       1.95000000
H        2.14978700      -1.24118000       1.95000000
H        0.00000000      -2.48236000       1.95000000
H       -2.14978700      -1.24118000       1.95000000
H       -2.14978700       1.24118000       1.95000000
