24
Properties=species:S:1:pos:R:3 pbc="F F F"
C        0.00378107       1.38479303      -2.50826127
C        1.15949065       0.73361815      -2.47711668
C        1.20181154      -0.68214787      -2.49437579
C       -0.01107646      -1.37569665      -2.50621113
C       -1.21489648      -0.71346694      -2.49090084
C       -1.21030396       0.70852977      -2.51214371
H        0.00253656       2.46451452      -2.48317070
H        2.15354770       1.24779142      -2.49178992
H        2.12957185      -1.22551638      -2.45886594
H       -0.03276885      -2.51694823      -2.53009663
H       -2.13295782      -1.23860569      -2.47843315
H       -2.13533838       1.24539144      -2.49431924
C       -0.00339521       0.01736920       3.87265368
C        1.19988282       0.00485878       3.23365242
C        1.19303072      -0.02158121       1.79111026
C        0.01938544      -0.00470011       1.13123894
C       -1.24577059       0.02257046       1.82307332
C       -1.23669331       0.00307164       3.22193915
H        0.00175838       0.01999403       5.02985774
H        2.15526565      -0.00560765       3.72575896
H        2.16274829      -0.00393460       1.25524507
H       -0.00210520       0.01299739      -0.00368679
H       -2.18038453      -0.04867753       1.28279342
H       -2.14831113       0.03020239       3.74100087
