
                                 *****************
                                 * O   R   C   A *
                                 *****************

                                            #,                                       
                                            ###                                      
                                            ####                                     
                                            #####                                    
                                            ######                                   
                                           ########,                                 
                                     ,,################,,,,,                         
                               ,,#################################,,                 
                          ,,##########################################,,             
                       ,#########################################, ''#####,          
                    ,#############################################,,   '####,        
                  ,##################################################,,,,####,       
                ,###########''''           ''''###############################       
              ,#####''   ,,,,##########,,,,          '''####'''          '####       
            ,##' ,,,,###########################,,,                        '##       
           ' ,,###''''                  '''############,,,                           
         ,,##''                                '''############,,,,        ,,,,,,###''
      ,#''                                            '''#######################'''  
     '                                                          ''''####''''         
             ,#######,   #######,   ,#######,      ##                                
            ,#'     '#,  ##    ##  ,#'     '#,    #''#        ,####,    ,#,          
            ##       ##  ##   ,#'  ##            #'  '#       #'       ,# #          
            ##       ##  #######   ##           ,######,      #####,      #          
            '#,     ,#'  ##    ##  '#,     ,#' ,#      #,     #,   #      #          
             '#######'   ##     ##  '#######'  #'      '#     '####' #    #          



                #########################################################
                #                        -***-                          #
                #          Department of theory and spectroscopy        #
                #                                                       #
                #                      Frank Neese                      #
                #                                                       #
                #     Directorship, Architecture, Infrastructure        #
                #                    SHARK, DRIVERS                     #
                #        Core code/Algorithms in most modules           #
                #                                                       #
                #        Max Planck Institute fuer Kohlenforschung      #
                #                Kaiser Wilhelm Platz 1                 #
                #                 D-45470 Muelheim/Ruhr                 #
                #                      Germany                          #
                #                                                       #
                #                  All rights reserved                  #
                #                        -***-                          #
                #########################################################


                         Program Version 6.1.1  -  RELEASE   -
                                (GIT: $487d211c$)
                          ($2025-11-21 10:33:24 +0100$)


 With contributions from (in alphabetic order):
[Max-Planck-Institut fuer Kohlenforschung]                               
  Daniel Aravena         : Magnetic Suceptibility                        
  Michael Atanasov       : Ab Initio Ligand Field Theory (pilot matlab implementation)
  Alexander A. Auer      : GIAO ZORA, VPT2 properties, NMR spectrum      
  Ute Becker             : All parallelization in ORCA, NUMFREQ, NUMCALC 
  Giovanni Bistoni       : ED, misc. LED, open-shell LED, HFLD           
  Dmytro Bykov           : pre 5.0 version of the SCF Hessian            
  Marcos Casanova-Páez   : Triplet and SCS-CIS(D). UHF-(DLPNO)-IP/EA/STEOM-CCSD. UHF-CVS-IP/STEOM-CCSD   
  Vijay G. Chilkuri      : MRCI spin determinant printing, contributions to CSF-ICE 
  Pauline Colinet        : FMM embedding                                 
  Dipayan Datta          : RHF DLPNO-CCSD density                        
  Achintya Kumar Dutta   : EOM-CC, STEOM-CC                              
  Nicolas Foglia         : Exact transition moments, OPA infrastructure, MCD improvements    
  Dmitry Ganyushin       : Spin-Orbit,Spin-Spin,Magnetic field MRCI      
  Miquel Garcia-Rates    : C-PCM and meta-GGA Hessian, CCSD/C-PCM, Gaussian charge scheme 
  Tiago L. C. Gouveia    : GS-ROHF, GS-ROCIS                             
  Yang Guo               : DLPNO-NEVPT2, F12-NEVPT2, CIM, IAO-localization        
  Andreas Hansen         : Spin unrestricted coupled pair/coupled cluster methods 
  Ingolf Harden          : AUTO-CI MPn and infrastructure                
  Benjamin Helmich-Paris : MC-RPA, TRAH-(SCF,CASSCF), AVAS, COSX integrals, SCF dyn. polar., MC-PDFT, srDFT 
  Lee Huntington         : MR-EOM, pCC                                   
  Robert Izsak           : Overlap fitted RIJCOSX, COSX-SCS-MP3, EOM     
  Riya Kayal             : Wick's Theorem for AUTO-CI, AUTO-CI UHF-CCSDT 
  Emily Kempfer          : AUTO-CI RHF CISDT and CCSDT, approximate NEVPT4
  Christian Kollmar      : KDIIS, OOCD, Brueckner-CCSD(T), CCSD density, CASPT2, CASPT2-K, improved NEVPT2 
  Axel Koslowski         : Symmetry handling                             
  Simone Kossmann        : meta-GGA functionals, TD-DFT gradient, OOMP2, (MP2 Hessian; deprecated post 5.0) 
  Lucas Lang             : DCDCAS, Hyperfine gauge corrections, ICE-SOC+SSC
  Marvin Lechner         : AUTO-CI (C++ implementation), FIC-MRCC        
  Spencer Leger          : CASSCF response                               
  Dagmar Lenk            : GEPOL surface, SMD, ORCA-2-JSON               
  Dimitrios Liakos       : Extrapolation schemes; Compound Job, Property file
  Dimitrios Manganas     : Further ROCIS development; embedding schemes. LFT, Crystal Embedding 
  Dimitrios Pantazis     : SARC Basis sets                               
  Anastasios Papadopoulos: AUTO-CI, single reference methods and gradients 
  Taras Petrenko         : pre 6.0 DFT Hessian and TD-DFT gradient,  ECA, NRVS 
  Petra Pikulova         : Analytic Raman intensities                    
  Peter Pinski           : DLPNO-MP2, DLPNO-MP2 Gradient                 
  Shashank Vittal Rao    : ES-AILFT, MagRelax                            
  Christoph Reimann      : Effective Core Potentials                     
  Marius Retegan         : Local ZFS, SOC                                
  Christoph Riplinger    : Optimizer, TS searches, QM/MM, DLPNO-CCSD(T), (RO)-DLPNO pert. Triples 
  Michael Roemelt        : Original ROCIS implementation, recursive CI coupling coefficients
  Masaaki Saitow         : Open-shell DLPNO-CCSD energy and density      
  Barbara Sandhoefer     : DKH picture change effects                    
  Yorick L. A. Schmerwitz: GMF and freeze-and-release deltaSCF, NEB S-IDPP initial path                    
  Kantharuban Sivalingam : CASSCF convergence/infrastructure, NEVPT2, NEVPT3, NEVPT4(SD), FIC-MRCI and CEPA variants
  Bernardo de Souza      : ESD, SOC TD-DFT                               
  Georgi L. Stoychev     : AutoAux, RI-MP2 NMR, DLPNO-MP2 response, X2C  
  Van Anh Tran           : RI-MP2 g-tensors                              
  Willem Van den Heuvel  : Paramagnetic NMR                              
  Zikuan Wang            : NOTCH, Electric field optimization            
  Frank Wennmohs         : Technical directorship and infrastructure     
  Hang Xu                : AUTO-CI-Response properties                   
                                                                         
[FACCTs GmbH]                                                            
  Markus Bursch, Nicolas Foglia, Miquel Garcia-Rates, Ingolf Harden, Hagen Neugebauer, Anastasios Papadopoulos, 
  Christoph Riplinger, Bernardo de Souza, Georgi L. Stoychev                                                    
                                                                 
  APM, various basis sets, CI-OPT, improved COSX, DLPNO-Multilevel,           
  DOCKER, DRACO, updates on ESD, Fragmentator, GOAT, IRC, LR-CPCM, L-BFGS, MBIS, meta-GGA TD-DFT gradient, ML-optimized integration grids, 
  MM, NACMEs, nearIR, NEB, NEB-TS, NL-DFT gradient (VV10), 2- and 3-layer-ONIOM, interface openCOSMO-RS, QMMM,   
  Crystal-QMMM, RESP, rigid body optimization, SF, symmetry and pop. for TD-DFT, various functionals, SOLVATOR                                   
                                                                         
[Other institutions]                                                     
  V. Asgeirsson          : NEB                                           
  Christoph Bannwarth    : sTDA-DFT, sTD-DFT, PBEh-3c, B97-3c, D3        
  Giovanni Bistoni       : ETS/NOCV, ADLD/ADEX, COVALED                  
  Martin Brehm           : Molecular dynamics                            
  Ronald Cardenas        : ETS/NOCV                                      
  Martina Colucci        : COVALED                                       
  Sebastian Ehlert       : rSCAN, r2SCAN, r2SCAN-3c, D4, dhf basis sets  
  Marvin Friede          : D4 for Fr, Ra, Ac-Lr                          
  Lars Goerigk           : TD-DFT with DH, B97 family of functionals     
  Stefan Grimme          : VdW corrections, initial TS optimization, DFT functionals, gCP, sTDA/sTD-DF 
  Waldemar Hujo          : DFT-NL                                        
  H. Jonsson             : NEB                                           
  Holger Kruse           : gCP                                           
  Marcel Mueller         : wB97X-3c, vDZP basis set                      
  Hagen Neugebauer       : wr2SCAN, Native XTB                           
  Gianluca Regni         : ADLD/ADEX                                     
  Tobias Risthaus        : pre 6.0 range-separated hybrid DFT and stability analysis
  Lukas Wittmann         : regularized MP2, r2SCAN double-hybrids, wr2SCAN        
                                                                         
We gratefully acknowledge several colleagues who have allowed us to      
interface, adapt or use parts of their codes:                            
  Ed Valeev, F. Pavosevic, A. Kumar             : LibInt (2-el integral package), F12 methods 
  Garnet Chan, S. Sharma, J. Yang, R. Olivares  : DMRG                   
  Ulf Ekstrom                                   : XCFun DFT Library      
  Mihaly Kallay                                 : mrcc  (arbitrary order and MRCC methods)
  Frank Weinhold                                : gennbo (NPA and NBO analysis)           
  Simon Mueller                                 : openCOSMO-RS                            
  Christopher J. Cramer and Donald G. Truhlar   : smd solvation model                     
  S Lehtola, MJT Oliveira, MAL Marques          : LibXC Library                           
  Liviu Ungur et al                             : ANISO software                          


 Your calculation uses the libint2 library for the computation of 2-el integrals
 For citations please refer to: http://libint.valeyev.net

 Your ORCA version has been built with support for libXC version: 7.0.0
 For citations please refer to: https://libxc.gitlab.io

 This ORCA versions uses:
   CBLAS   interface :  Fast vector & matrix operations
   LAPACKE interface :  Fast linear algebra routines
   SCALAPACK package :  Parallel linear algebra routines
   Shared memory     :  Shared parallel matrices
   BLAS/LAPACK       :  OpenBLAS 0.3.29  USE64BITINT DYNAMIC_ARCH NO_AFFINITY Haswell SINGLE_THREADED
        Core in use  :  Haswell
   Copyright (c) 2011-2014, The OpenBLAS Project


  ***********************************
  * Starting time: Thu Oct  1 12:23:41 2026
  * Host name:     <anonimizado>
  * Process ID:    559017
  * Working dir.:  <anonimizado>
  ***********************************

NOTE: MaxCore=2500 MB was set to SCF,MP2,MDCI,CIPSI,MRCI,RASCI and CIS
      => If you want to overwrite this, your respective input block should be placed after the MaxCore statement
Your calculation utilizes the atom-pairwise dispersion correction
with the Becke-Johnson damping scheme (D3BJ)


Your calculation employs the composite approach B97-3c by Grimme and coworkers.
Please cite in your paper:
Brandenburg, J. G.; Bannwarth, C.; Hansen A.; Grimme, S. J. Chem. Phys. 2018, 148, 064104 
   

XCFun DFT library Copyright 2009-2010 Ulf Ekstrom and contributors.
See http://admol.org/xcfun for more information.
This is free software; see the source code for copying conditions.
There is ABSOLUTELY NO WARRANTY; not even for MERCHANTABILITY or FITNESS FOR A PARTICULAR PURPOSE.
For details see the documentation.
Scientific users of this library should cite U. Ekstrom, L. Visscher, R. Bast, A. J. Thorvaldsen and K. Ruud;
J.Chem.Theor.Comp. 2010, DOI: 10.1021/ct100117s
XCFun Version 0.99 

================================================================================

----- Orbital basis set information -----
Your calculation utilizes the basis: def2-mTZVP
----- AuxJ basis set information -----
Your calculation utilizes the auxiliary basis: def2-mTZVP/J
================================================================================
                                        WARNINGS
                       Please study these warnings very carefully!
================================================================================


WARNING: Geometry Optimization
  ===> : Switching off AutoStart
         For restart on a previous wavefunction, please use MOREAD

================================================================================
                                       INPUT FILE
================================================================================
NAME = dimero_PD.inp
|  1> ! B97-3c Opt Freq TightSCF
|  2> %pal nprocs 4 end
|  3> %maxcore 2500
|  4> * xyz 0 1
|  5> C     -0.80000000     1.39524800    -1.80000000
|  6> C      0.40832000     0.69762400    -1.80000000
|  7> C      0.40832000    -0.69762400    -1.80000000
|  8> C     -0.80000000    -1.39524800    -1.80000000
|  9> C     -2.00832000    -0.69762400    -1.80000000
| 10> C     -2.00832000     0.69762400    -1.80000000
| 11> H     -0.80000000     2.48236000    -1.80000000
| 12> H      1.34978700     1.24118000    -1.80000000
| 13> H      1.34978700    -1.24118000    -1.80000000
| 14> H     -0.80000000    -2.48236000    -1.80000000
| 15> H     -2.94978700    -1.24118000    -1.80000000
| 16> H     -2.94978700     1.24118000    -1.80000000
| 17> C      0.80000000     1.39524800     1.80000000
| 18> C      2.00832000     0.69762400     1.80000000
| 19> C      2.00832000    -0.69762400     1.80000000
| 20> C      0.80000000    -1.39524800     1.80000000
| 21> C     -0.40832000    -0.69762400     1.80000000
| 22> C     -0.40832000     0.69762400     1.80000000
| 23> H      0.80000000     2.48236000     1.80000000
| 24> H      2.94978700     1.24118000     1.80000000
| 25> H      2.94978700    -1.24118000     1.80000000
| 26> H      0.80000000    -2.48236000     1.80000000
| 27> H     -1.34978700    -1.24118000     1.80000000
| 28> H     -1.34978700     1.24118000     1.80000000
| 29> *
| 30> 
| 31>                          ****END OF INPUT****
================================================================================

                       *****************************
                       * Geometry Optimization Run *
                       *****************************

Geometry optimization settings:
Update method            Update   .... BFGS
Choice of coordinates    CoordSys .... (2022) Redundant Internals
Initial Hessian          InHess   .... Almloef's Model
Max. no of cycles        MaxIter  .... 72

Convergence Tolerances:
Energy Change            TolE     ....  5.0000e-06 Eh
Max. Gradient            TolMAXG  ....  3.0000e-04 Eh/bohr
RMS Gradient             TolRMSG  ....  1.0000e-04 Eh/bohr
Max. Displacement        TolMAXD  ....  4.0000e-03 bohr
RMS Displacement         TolRMSD  ....  2.0000e-03 bohr
Strict Convergence                .... False

------------------------------------------------------------------------------
                        ORCA OPTIMIZATION COORDINATE SETUP
------------------------------------------------------------------------------

The optimization will be done in redundant internal coordinates (2022)
Making redundant internal coordinates   ...  (2022 redundants) done
Evaluating the initial hessian          ...  (Almloef) done
Evaluating the coordinates              ...  done
Calculating the B-matrix                .... done
Calculating the G-matrix                .... done
The number of degrees of freedom        .... 1130

    -----------------------------------------------------------------
                    Redundant Internal Coordinates


    -----------------------------------------------------------------
         Definition                    Initial Value    Approx d2E/dq
    -----------------------------------------------------------------
      1. B(C   1,C   0)                  1.3952         0.612867   
      2. B(C   2,C   1)                  1.3952         0.612866   
      3. B(C   3,C   2)                  1.3952         0.612867   
      4. B(C   4,C   3)                  1.3952         0.612867   
      5. B(C   5,C   4)                  1.3952         0.612866   
      6. B(C   5,C   0)                  1.3952         0.612867   
      7. B(H   6,C   0)                  1.0871         0.363941   
      8. B(H   7,C   1)                  1.0871         0.363940   
      9. B(H   8,C   2)                  1.0871         0.363940   
     10. B(H   9,C   3)                  1.0871         0.363941   
     11. B(H  10,C   4)                  1.0871         0.363940   
     12. B(H  11,C   5)                  1.0871         0.363940   
     13. B(C  12,C   5)                  4.6188         0.010000   
     14. B(C  12,C   0)                  3.9395         0.010000   
     15. B(C  12,C   2)                  4.1825         0.010000   
     16. B(C  12,H   7)                  3.6450         0.010000   
     17. B(C  12,C   1)                  3.6878         0.010000   
     18. B(C  12,H   8)                  4.4959         0.010000   
     19. B(C  12,H   6)                  4.0868         0.010000   
     20. B(C  13,C  12)                  1.3952         0.612867   
     21. B(C  13,C   0)                  4.6188         0.010000   
     22. B(C  13,C   1)                  3.9395         0.010000   
     23. B(C  13,C   2)                  4.1793         0.010000   
     24. B(C  13,H   7)                  3.6999         0.010000   
     25. B(C  13,H   8)                  4.1416         0.010000   
     26. B(C  14,C  13)                  1.3952         0.612866   
     27. B(C  14,C   3)                  4.6188         0.010000   
     28. B(C  14,C   2)                  3.9395         0.010000   
     29. B(C  14,H   8)                  3.6999         0.010000   
     30. B(C  14,C   1)                  4.1793         0.010000   
     31. B(C  14,H   7)                  4.1416         0.010000   
     32. B(C  15,H   8)                  3.6450         0.010000   
     33. B(C  15,C   4)                  4.6188         0.010000   
     34. B(C  15,H   7)                  4.4959         0.010000   
     35. B(C  15,C   3)                  3.9395         0.010000   
     36. B(C  15,C   1)                  4.1825         0.010000   
     37. B(C  15,C  14)                  1.3952         0.612867   
     38. B(C  15,H   9)                  4.0868         0.010000   
     39. B(C  15,C   2)                  3.6878         0.010000   
     40. B(C  16,H   9)                  4.0372         0.010000   
     41. B(C  16,C   1)                  3.9463         0.010000   
     42. B(C  16,C   4)                  3.9395         0.010000   
     43. B(C  16,H   7)                  4.4508         0.010000   
     44. B(C  16,H  10)                  4.4401         0.010000   
     45. B(C  16,C   0)                  4.1825         0.010000   
     46. B(C  16,C   5)                  4.1793         0.010000   
     47. B(C  16,H   8)                  4.0431         0.010000   
     48. B(C  16,C   2)                  3.6915         0.010000   
     49. B(C  16,C   3)                  3.6878         0.010000   
     50. B(C  16,C  15)                  1.3952         0.612867   
     51. B(C  17,H   7)                  4.0431         0.010000   
     52. B(C  17,H   6)                  4.0372         0.010000   
     53. B(C  17,C   5)                  3.9395         0.010000   
     54. B(C  17,C   0)                  3.6878         0.010000   
     55. B(C  17,H  11)                  4.4401         0.010000   
     56. B(C  17,C   2)                  3.9463         0.010000   
     57. B(C  17,H   8)                  4.4508         0.010000   
     58. B(C  17,C   3)                  4.1825         0.010000   
     59. B(C  17,C   4)                  4.1793         0.010000   
     60. B(C  17,C  16)                  1.3952         0.612866   
     61. B(C  17,C  12)                  1.3952         0.612867   
     62. B(C  17,C   1)                  3.6915         0.010000   
     63. B(H  18,C   1)                  4.0372         0.010000   
     64. B(H  18,H   6)                  3.9395         0.010000   
     65. B(H  18,H   7)                  3.8474         0.010000   
     66. B(H  18,C  12)                  1.0871         0.363941   
     67. B(H  18,C   0)                  4.0868         0.010000   
     68. B(H  19,H   8)                  4.6564         0.010000   
     69. B(H  19,H   7)                  3.9395         0.010000   
     70. B(H  19,C   1)                  4.4401         0.010000   
     71. B(H  19,C  13)                  1.0871         0.363940   
     72. B(H  20,H   8)                  3.9395         0.010000   
     73. B(H  20,H   7)                  4.6564         0.010000   
     74. B(H  20,C  14)                  1.0871         0.363940   
     75. B(H  20,C   2)                  4.4401         0.010000   
     76. B(H  21,C   2)                  4.0372         0.010000   
     77. B(H  21,H   9)                  3.9395         0.010000   
     78. B(H  21,C  15)                  1.0871         0.363941   
     79. B(H  21,H   8)                  3.8474         0.010000   
     80. B(H  21,C   3)                  4.0868         0.010000   
     81. B(H  22,C   2)                  4.0431         0.010000   
     82. B(H  22,C   3)                  3.6450         0.010000   
     83. B(H  22,H  11)                  4.6564         0.010000   
     84. B(H  22,H   8)                  4.4997         0.010000   
     85. B(H  22,C  16)                  1.0871         0.363940   
     86. B(H  22,H  10)                  3.9395         0.010000   
     87. B(H  22,C   0)                  4.4959         0.010000   
     88. B(H  22,C   1)                  4.4508         0.010000   
     89. B(H  22,H   9)                  3.8474         0.010000   
     90. B(H  22,C   4)                  3.6999         0.010000   
     91. B(H  22,C   5)                  4.1416         0.010000   
     92. B(H  23,C   0)                  3.6450         0.010000   
     93. B(H  23,H  11)                  3.9395         0.010000   
     94. B(H  23,H  10)                  4.6564         0.010000   
     95. B(H  23,C  17)                  1.0871         0.363940   
     96. B(H  23,H   7)                  4.4997         0.010000   
     97. B(H  23,C   3)                  4.4959         0.010000   
     98. B(H  23,C   2)                  4.4508         0.010000   
     99. B(H  23,H   6)                  3.8474         0.010000   
    100. B(H  23,C   4)                  4.1416         0.010000   
    101. B(H  23,C   5)                  3.6999         0.010000   
    102. B(H  23,C   1)                  4.0431         0.010000   
    103. A(C   1,C   0,C   5)          120.0000         0.432263   
    104. A(H   6,C   0,C  13)           98.6872         0.107085   
    105. A(C   1,C   0,C  17)           79.2477         0.140022   
    106. A(C   5,C   0,C  17)           89.8507         0.140022   
    107. A(H   6,C   0,C  12)           90.0000         0.120812   
    108. A(C   5,C   0,C  16)           80.2650         0.122816   
    109. A(C  12,C   0,C  16)           34.4548         0.093077   
    110. A(C  12,C   0,C  13)           16.4261         0.091837   
    111. A(C   1,C   0,C  13)           52.9810         0.112528   
    112. A(C   1,C   0,H   6)          120.0000         0.352851   
    113. A(C   5,C   0,C  13)          116.8104         0.112528   
    114. A(C  16,C   0,C  17)           19.1211         0.094026   
    115. A(C  13,C   0,C  16)           36.5454         0.091318   
    116. A(C  13,C   0,C  17)           31.3496         0.092497   
    117. A(H   6,C   0,C  16)          120.0255         0.114993   
    118. A(C  12,C   0,C  17)           20.7422         0.095152   
    119. A(C   5,C   0,C  12)          110.5929         0.130387   
    120. A(C   1,C   0,C  16)           70.6527         0.122816   
    121. A(C   5,C   0,H   6)          120.0000         0.352851   
    122. A(C   1,C   0,C  12)           69.4071         0.130387   
    123. A(H   6,C   0,C  17)          100.9043         0.128219   
    124. A(C  13,C   1,C  14)           19.5024         0.093088   
    125. A(C   2,C   1,C  12)          100.9043         0.140022   
    126. A(C  14,C   1,C  16)           34.4524         0.093065   
    127. A(C   2,C   1,C  13)           90.0000         0.130387   
    128. A(C   0,C   1,C  16)           89.8605         0.130154   
    129. A(C   0,C   1,C  15)          109.3473         0.122816   
    130. A(C  13,C   1,C  16)           41.4470         0.093962   
    131. A(H   7,C   1,C  14)           80.5246         0.115062   
    132. A(H   7,C   1,C  15)           99.7350         0.114993   
    133. A(C   0,C   1,C  12)           89.8507         0.140022   
    134. A(C   2,C   1,C  17)           90.0000         0.139868   
    135. A(H   7,C   1,C  16)          110.8541         0.120633   
    136. A(C  16,C   1,C  17)           20.7049         0.095099   
    137. A(C   0,C   1,C  13)          110.5929         0.130387   
    138. A(C   0,C   1,C  14)          119.8988         0.122906   
    139. A(H   7,C   1,C  12)           79.2477         0.128219   
    140. A(H   7,C   1,C  13)           69.4071         0.120812   
    141. A(C   0,C   1,C   2)          120.0000         0.432263   
    142. A(C  12,C   1,C  13)           20.7422         0.095152   
    143. A(C   2,C   1,H   7)          120.0000         0.352851   
    144. A(C  15,C   1,C  16)           19.4867         0.093054   
    145. A(C   0,C   1,H   7)          120.0000         0.352851   
    146. A(C  13,C   1,C  15)           34.4548         0.093077   
    147. A(C   2,C   1,C  16)           69.2951         0.130154   
    148. A(C  15,C   1,C  17)           35.0470         0.094011   
    149. A(C   2,C   1,C  15)           59.9745         0.122816   
    150. A(H   7,C   1,C  17)          101.0453         0.128100   
    151. A(C  14,C   1,C  17)           40.9441         0.094025   
    152. A(C   0,C   1,C  17)           78.9547         0.139868   
    153. A(C  14,C   1,C  15)           19.2104         0.092340   
    154. A(C  12,C   1,C  15)           40.9298         0.094026   
    155. A(C   2,C   1,C  14)           70.4976         0.122906   
    156. A(C  12,C   1,C  17)           21.7977         0.096561   
    157. A(C  13,C   1,C  17)           36.7434         0.095133   
    158. A(C  12,C   1,C  16)           36.7120         0.095117   
    159. A(C  12,C   1,C  14)           35.0774         0.094040   
    160. A(C   1,C   2,H   8)          120.0000         0.352851   
    161. A(C  15,C   2,C  17)           36.7120         0.095117   
    162. A(C  15,C   2,C  16)           21.7977         0.096561   
    163. A(C   1,C   2,C  12)           59.9745         0.122816   
    164. A(C  14,C   2,C  16)           36.7434         0.095133   
    165. A(C   1,C   2,C  17)           69.2951         0.130154   
    166. A(C  12,C   2,C  13)           19.2104         0.092340   
    167. A(C   1,C   2,C  14)           90.0000         0.130387   
    168. A(C  12,C   2,C  17)           19.4867         0.093054   
    169. A(C   3,C   2,C  14)          110.5929         0.130387   
    170. A(C   3,C   2,C  16)           78.9547         0.139868   
    171. A(H   8,C   2,C  14)           69.4071         0.120812   
    172. A(H   8,C   2,C  16)          101.0453         0.128100   
    173. A(C  13,C   2,C  14)           19.5024         0.093088   
    174. A(C  12,C   2,C  16)           35.0470         0.094011   
    175. A(C  14,C   2,C  17)           41.4470         0.093962   
    176. A(H   8,C   2,C  15)           79.2477         0.128219   
    177. A(C   3,C   2,C  15)           89.8507         0.140022   
    178. A(C   3,C   2,C  13)          119.8988         0.122906   
    179. A(C   1,C   2,C  13)           70.4976         0.122906   
    180. A(C   3,C   2,H   8)          120.0000         0.352851   
    181. A(C  13,C   2,C  15)           35.0774         0.094040   
    182. A(H   8,C   2,C  17)          110.8541         0.120633   
    183. A(C  12,C   2,C  15)           40.9298         0.094026   
    184. A(C  12,C   2,C  14)           34.4548         0.093077   
    185. A(C   3,C   2,C  12)          109.3473         0.122816   
    186. A(C   1,C   2,C  16)           90.0000         0.139868   
    187. A(H   8,C   2,C  13)           80.5246         0.115062   
    188. A(C   1,C   2,C   3)          120.0000         0.432263   
    189. A(C   3,C   2,C  17)           89.8605         0.130154   
    190. A(C  13,C   2,C  17)           34.4524         0.093065   
    191. A(C  16,C   2,C  17)           20.7049         0.095099   
    192. A(H   8,C   2,C  12)           99.7350         0.114993   
    193. A(C  14,C   2,C  15)           20.7422         0.095152   
    194. A(C   1,C   2,C  15)          100.9043         0.140022   
    195. A(C  13,C   2,C  16)           40.9441         0.094025   
    196. A(C  14,C   3,C  15)           16.4261         0.091837   
    197. A(C   2,C   3,C  14)           52.9810         0.112528   
    198. A(C   4,C   3,C  16)           89.8507         0.140022   
    199. A(C   2,C   3,C  16)           79.2477         0.140022   
    200. A(H   9,C   3,C  16)          100.9043         0.128219   
    201. A(C  15,C   3,C  17)           34.4548         0.093077   
    202. A(C  16,C   3,C  17)           19.1211         0.094026   
    203. A(C   4,C   3,C  17)           80.2650         0.122816   
    204. A(C   2,C   3,C  17)           70.6527         0.122816   
    205. A(C   2,C   3,C   4)          120.0000         0.432263   
    206. A(C  15,C   3,C  16)           20.7422         0.095152   
    207. A(C  14,C   3,C  17)           36.5454         0.091318   
    208. A(C   2,C   3,H   9)          120.0000         0.352851   
    209. A(H   9,C   3,C  17)          120.0255         0.114993   
    210. A(H   9,C   3,C  15)           90.0000         0.120812   
    211. A(C   4,C   3,C  15)          110.5929         0.130387   
    212. A(C   2,C   3,C  15)           69.4071         0.130387   
    213. A(H   9,C   3,C  14)           98.6872         0.107085   
    214. A(C   4,C   3,H   9)          120.0000         0.352851   
    215. A(C   4,C   3,C  14)          116.8104         0.112528   
    216. A(C  14,C   3,C  16)           31.3496         0.092497   
    217. A(C   3,C   4,H  10)          120.0000         0.352851   
    218. A(C   3,C   4,C  16)           69.4071         0.130387   
    219. A(C   5,C   4,C  17)           70.4976         0.122906   
    220. A(C   5,C   4,H  10)          120.0000         0.352851   
    221. A(H  10,C   4,C  17)          119.8988         0.115062   
    222. A(C   3,C   4,C  17)           80.5246         0.122906   
    223. A(C   3,C   4,C   5)          120.0000         0.432263   
    224. A(H  10,C   4,C  16)          110.5929         0.120812   
    225. A(H  10,C   4,C  15)          116.8104         0.107085   
    226. A(C  15,C   4,C  16)           16.4261         0.091837   
    227. A(C   5,C   4,C  15)           98.6872         0.112528   
    228. A(C   3,C   4,C  15)           52.9810         0.112528   
    229. A(C  16,C   4,C  17)           19.5024         0.093088   
    230. A(C   5,C   4,C  16)           90.0000         0.130387   
    231. A(C  15,C   4,C  17)           31.3802         0.091324   
    232. A(C  12,C   5,C  16)           31.3802         0.091324   
    233. A(C   0,C   5,C   4)          120.0000         0.432263   
    234. A(H  11,C   5,C  17)          110.5929         0.120812   
    235. A(C   4,C   5,C  17)           90.0000         0.130387   
    236. A(C   0,C   5,C  17)           69.4071         0.130387   
    237. A(C  16,C   5,C  17)           19.5024         0.093088   
    238. A(H  11,C   5,C  16)          119.8988         0.115062   
    239. A(C   4,C   5,C  16)           70.4976         0.122906   
    240. A(C   0,C   5,C  16)           80.5246         0.122906   
    241. A(C   4,C   5,H  11)          120.0000         0.352851   
    242. A(C   0,C   5,H  11)          120.0000         0.352851   
    243. A(C  12,C   5,C  17)           16.4261         0.091837   
    244. A(H  11,C   5,C  12)          116.8104         0.107085   
    245. A(C   4,C   5,C  12)           98.6872         0.112528   
    246. A(C   0,C   5,C  12)           52.9810         0.112528   
    247. A(C   1,C  12,C   2)           19.1211         0.094026   
    248. A(C   2,C  12,H  18)          120.0255         0.114993   
    249. A(C   2,C  12,C  17)           70.6527         0.122816   
    250. A(C   2,C  12,C  13)           80.2650         0.122816   
    251. A(C   1,C  12,H  18)          100.9043         0.128219   
    252. A(C   1,C  12,C  17)           79.2477         0.140022   
    253. A(C  17,C  12,H  18)          120.0000         0.352851   
    254. A(C   1,C  12,C  13)           89.8507         0.140022   
    255. A(C  13,C  12,H  18)          120.0000         0.352851   
    256. A(C   0,C  12,C   5)           16.4261         0.091837   
    257. A(C   0,C  12,C   1)           20.7422         0.095152   
    258. A(C   0,C  12,H  18)           90.0000         0.120812   
    259. A(C   0,C  12,C  17)           69.4071         0.130387   
    260. A(C   0,C  12,C  13)          110.5929         0.130387   
    261. A(C  13,C  12,C  17)          120.0000         0.432263   
    262. A(C   0,C  12,C   2)           34.4548         0.093077   
    263. A(C   2,C  12,C   5)           36.5454         0.091318   
    264. A(C   1,C  12,C   5)           31.3496         0.092497   
    265. A(C   5,C  12,H  18)           98.6872         0.107085   
    266. A(C   5,C  12,C  17)           52.9810         0.112528   
    267. A(C   5,C  12,C  13)          116.8104         0.112528   
    268. A(C   1,C  13,H  19)          110.5929         0.120812   
    269. A(C   1,C  13,C  14)           90.0000         0.130387   
    270. A(C   1,C  13,C  12)           69.4071         0.130387   
    271. A(C  14,C  13,H  19)          120.0000         0.352851   
    272. A(C  12,C  13,H  19)          120.0000         0.352851   
    273. A(C   0,C  13,C  14)           98.6872         0.112528   
    274. A(C   1,C  13,C   2)           19.5024         0.093088   
    275. A(C   2,C  13,H  19)          119.8988         0.115062   
    276. A(C   2,C  13,C  14)           70.4976         0.122906   
    277. A(C   2,C  13,C  12)           80.5246         0.122906   
    278. A(C  12,C  13,C  14)          120.0000         0.432263   
    279. A(C   0,C  13,C   2)           31.3802         0.091324   
    280. A(C   0,C  13,C   1)           16.4261         0.091837   
    281. A(C   0,C  13,H  19)          116.8104         0.107085   
    282. A(C   0,C  13,C  12)           52.9810         0.112528   
    283. A(C   1,C  14,C   3)           31.3802         0.091324   
    284. A(C   2,C  14,C   3)           16.4261         0.091837   
    285. A(C   3,C  14,H  20)          116.8104         0.107085   
    286. A(C   3,C  14,C  13)           98.6872         0.112528   
    287. A(C  15,C  14,H  20)          120.0000         0.352851   
    288. A(C  13,C  14,H  20)          120.0000         0.352851   
    289. A(C   2,C  14,H  20)          110.5929         0.120812   
    290. A(C   2,C  14,C  15)           69.4071         0.130387   
    291. A(C   2,C  14,C  13)           90.0000         0.130387   
    292. A(C   1,C  14,C   2)           19.5024         0.093088   
    293. A(C   1,C  14,H  20)          119.8988         0.115062   
    294. A(C   1,C  14,C  15)           80.5246         0.122906   
    295. A(C   1,C  14,C  13)           70.4976         0.122906   
    296. A(C  13,C  14,C  15)          120.0000         0.432263   
    297. A(C   3,C  14,C  15)           52.9810         0.112528   
    298. A(C  14,C  15,H  21)          120.0000         0.352851   
    299. A(C   1,C  15,C   3)           34.4548         0.093077   
    300. A(C   1,C  15,C   2)           19.1211         0.094026   
    301. A(C   1,C  15,H  21)          120.0255         0.114993   
    302. A(C   1,C  15,C  16)           70.6527         0.122816   
    303. A(C   1,C  15,C  14)           80.2650         0.122816   
    304. A(C   2,C  15,H  21)          100.9043         0.128219   
    305. A(C   2,C  15,C  16)           79.2477         0.140022   
    306. A(C   2,C  15,C  14)           89.8507         0.140022   
    307. A(C  14,C  15,C  16)          120.0000         0.432263   
    308. A(C   2,C  15,C   3)           20.7422         0.095152   
    309. A(C   3,C  15,H  21)           90.0000         0.120812   
    310. A(C   3,C  15,C  16)           69.4071         0.130387   
    311. A(C   3,C  15,C  14)          110.5929         0.130387   
    312. A(C   1,C  15,C   4)           36.5454         0.091318   
    313. A(C   2,C  15,C   4)           31.3496         0.092497   
    314. A(C   4,C  15,C  16)           52.9810         0.112528   
    315. A(C   4,C  15,C  14)          116.8104         0.112528   
    316. A(C   3,C  15,C   4)           16.4261         0.091837   
    317. A(C   4,C  15,H  21)           98.6872         0.107085   
    318. A(C  16,C  15,H  21)          120.0000         0.352851   
    319. A(C   2,C  16,C   4)           36.7434         0.095133   
    320. A(C   3,C  16,C   4)           20.7422         0.095152   
    321. A(C   4,C  16,H  22)           69.4071         0.120812   
    322. A(C   4,C  16,C  17)           90.0000         0.130387   
    323. A(C   4,C  16,C  15)          110.5929         0.130387   
    324. A(C   3,C  16,H  22)           79.2477         0.128219   
    325. A(C   3,C  16,C  17)          100.9043         0.140022   
    326. A(C   3,C  16,C  15)           89.8507         0.140022   
    327. A(C   0,C  16,C   5)           19.2104         0.092340   
    328. A(C   0,C  16,C   1)           19.4867         0.093054   
    329. A(C   0,C  16,C   4)           34.4548         0.093077   
    330. A(C   0,C  16,C   2)           35.0470         0.094011   
    331. A(C   0,C  16,C   3)           40.9298         0.094026   
    332. A(C   0,C  16,H  22)           99.7350         0.114993   
    333. A(C   0,C  16,C  17)           59.9745         0.122816   
    334. A(C   0,C  16,C  15)          109.3473         0.122816   
    335. A(C  15,C  16,C  17)          120.0000         0.432263   
    336. A(C   1,C  16,C   5)           34.4524         0.093065   
    337. A(C   4,C  16,C   5)           19.5024         0.093088   
    338. A(C   2,C  16,C   5)           40.9441         0.094025   
    339. A(C   3,C  16,C   5)           35.0774         0.094040   
    340. A(C   5,C  16,H  22)           80.5246         0.115062   
    341. A(C   5,C  16,C  17)           70.4976         0.122906   
    342. A(C   5,C  16,C  15)          119.8988         0.122906   
    343. A(C   2,C  16,C   3)           21.7977         0.096561   
    344. A(C   1,C  16,C   4)           41.4470         0.093962   
    345. A(C   2,C  16,H  22)          101.0453         0.128100   
    346. A(C   1,C  16,C   2)           20.7049         0.095099   
    347. A(C   2,C  16,C  17)           90.0000         0.139868   
    348. A(C   1,C  16,C   3)           36.7120         0.095117   
    349. A(C   2,C  16,C  15)           78.9547         0.139868   
    350. A(C   1,C  16,H  22)          110.8541         0.120633   
    351. A(C   1,C  16,C  17)           69.2951         0.130154   
    352. A(C   1,C  16,C  15)           89.8605         0.130154   
    353. A(C  17,C  16,H  22)          120.0000         0.352851   
    354. A(C  15,C  16,H  22)          120.0000         0.352851   
    355. A(C   3,C  17,C   4)           19.2104         0.092340   
    356. A(C   2,C  17,C   3)           19.4867         0.093054   
    357. A(C   3,C  17,C   5)           34.4548         0.093077   
    358. A(C   1,C  17,C   3)           35.0470         0.094011   
    359. A(C   1,C  17,C   5)           36.7434         0.095133   
    360. A(C   0,C  17,C   3)           40.9298         0.094026   
    361. A(C   3,C  17,H  23)           99.7350         0.114993   
    362. A(C   0,C  17,C   5)           20.7422         0.095152   
    363. A(C   3,C  17,C  16)           59.9745         0.122816   
    364. A(C   3,C  17,C  12)          109.3473         0.122816   
    365. A(C   5,C  17,H  23)           69.4071         0.120812   
    366. A(C   5,C  17,C  16)           90.0000         0.130387   
    367. A(C   2,C  17,C   4)           34.4524         0.093065   
    368. A(C   5,C  17,C  12)          110.5929         0.130387   
    369. A(C  12,C  17,C  16)          120.0000         0.432263   
    370. A(C   4,C  17,C   5)           19.5024         0.093088   
    371. A(C   1,C  17,C   4)           40.9441         0.094025   
    372. A(C   0,C  17,C   4)           35.0774         0.094040   
    373. A(C   4,C  17,H  23)           80.5246         0.115062   
    374. A(C   4,C  17,C  16)           70.4976         0.122906   
    375. A(C   4,C  17,C  12)          119.8988         0.122906   
    376. A(C   0,C  17,H  23)           79.2477         0.128219   
    377. A(C   0,C  17,C  16)          100.9043         0.140022   
    378. A(C   0,C  17,C  12)           89.8507         0.140022   
    379. A(C  16,C  17,H  23)          120.0000         0.352851   
    380. A(C  12,C  17,H  23)          120.0000         0.352851   
    381. A(C   2,C  17,C   5)           41.4470         0.093962   
    382. A(C   0,C  17,C   1)           21.7977         0.096561   
    383. A(C   1,C  17,C   2)           20.7049         0.095099   
    384. A(C   1,C  17,H  23)          101.0453         0.128100   
    385. A(C   0,C  17,C   2)           36.7120         0.095117   
    386. A(C   2,C  17,H  23)          110.8541         0.120633   
    387. A(C   1,C  17,C  16)           90.0000         0.139868   
    388. A(C   2,C  17,C  16)           69.2951         0.130154   
    389. A(C   2,C  17,C  12)           89.8605         0.130154   
    390. A(C   1,C  17,C  12)           78.9547         0.139868   
    391. D(C   2,C   1,C   0,C  12)    102.5288         0.054103   
    392. D(C  12,C   1,C   0,C   5)   -102.5288         0.054103   
    393. D(C  12,C   1,C   0,C  17)    -18.9998         0.054103   
    394. D(H   7,C   1,C   0,C  12)    -77.4712         0.054103   
    395. D(C   2,C   1,C   0,C   5)      0.0000         0.054103   
    396. D(C  12,C   1,C   0,C  13)      0.0000         0.054103   
    397. D(C  17,C   1,C   0,H   6)     96.4710         0.054103   
    398. D(H   7,C   1,C   0,C  16)   -114.1833         0.054103   
    399. D(H   7,C   1,C   0,C  17)    -96.4710         0.054103   
    400. D(H   7,C   1,C   0,H   6)      0.0000         0.054103   
    401. D(C  12,C   1,C   0,C  16)    -36.7121         0.054103   
    402. D(C   2,C   1,C   0,C  16)     65.8167         0.054103   
    403. D(H   7,C   1,C   0,C  13)    -77.4712         0.054103   
    404. D(C  17,C   1,C   0,C  12)     18.9998         0.054103   
    405. D(C  17,C   1,C   0,C   5)    -83.5290         0.054103   
    406. D(H   7,C   1,C   0,C   5)    180.0000         0.054103   
    407. D(C  12,C   1,C   0,H   6)     77.4712         0.054103   
    408. D(C   2,C   1,C   0,C  17)     83.5290         0.054103   
    409. D(C   2,C   1,C   0,C  13)    102.5288         0.054103   
    410. D(C   2,C   1,C   0,H   6)    180.0000         0.054103   
    411. D(C  17,C   1,C   0,C  16)    -17.7123         0.054103   
    412. D(C   3,C   2,C   1,C  13)    113.9625         0.057910   
    413. D(C  15,C   2,C   1,C  13)     17.7531         0.057910   
    414. D(C  15,C   2,C   1,C  16)    -18.9903         0.057910   
    415. D(H   8,C   2,C   1,C  12)    -83.7906         0.057910   
    416. D(C  15,C   2,C   1,C  12)      0.0000         0.057910   
    417. D(H   8,C   2,C   1,C   0)    180.0000         0.057910   
    418. D(H   8,C   2,C   1,C  16)   -102.7809         0.057910   
    419. D(H   8,C   2,C   1,H   7)      0.0000         0.057910   
    420. D(C   3,C   2,C   1,C   0)      0.0000         0.057910   
    421. D(H   8,C   2,C   1,C  15)    -83.7906         0.057910   
    422. D(H   8,C   2,C   1,C  17)   -102.7809         0.057910   
    423. D(C   3,C   2,C   1,H   7)    180.0000         0.057910   
    424. D(H   8,C   2,C   1,C  14)    -66.0375         0.057910   
    425. D(C   3,C   2,C   1,C  14)    113.9625         0.057910   
    426. D(C  16,C   2,C   1,C   0)    -77.2191         0.057910   
    427. D(C   3,C   2,C   1,C  16)     77.2191         0.057910   
    428. D(C  15,C   2,C   1,C   0)    -96.2094         0.057910   
    429. D(C   3,C   2,C   1,C  15)     96.2094         0.057910   
    430. D(C   3,C   2,C   1,C  17)     77.2191         0.057910   
    431. D(C  15,C   2,C   1,C  14)     17.7531         0.057910   
    432. D(C  15,C   2,C   1,C  17)    -18.9903         0.057910   
    433. D(H   8,C   2,C   1,C  13)    -66.0375         0.057910   
    434. D(C   3,C   2,C   1,C  12)     96.2094         0.057910   
    435. D(C  15,C   2,C   1,H   7)     83.7906         0.057910   
    436. D(C   4,C   3,C   2,C  17)     65.8167         0.054103   
    437. D(H   9,C   3,C   2,C  16)    -96.4710         0.054103   
    438. D(H   9,C   3,C   2,C  13)    -96.4710         0.054103   
    439. D(C  16,C   3,C   2,H   8)     96.4710         0.054103   
    440. D(H   9,C   3,C   2,C  14)    -77.4712         0.054103   
    441. D(H   9,C   3,C   2,C  17)   -114.1833         0.054103   
    442. D(C   4,C   3,C   2,H   8)    180.0000         0.054103   
    443. D(H   9,C   3,C   2,H   8)      0.0000         0.054103   
    444. D(C   4,C   3,C   2,C  13)     83.5290         0.054103   
    445. D(C   4,C   3,C   2,C   1)      0.0000         0.054103   
    446. D(C   4,C   3,C   2,C  12)     65.8167         0.054103   
    447. D(C  16,C   3,C   2,C   1)    -83.5290         0.054103   
    448. D(C   4,C   3,C   2,C  14)    102.5288         0.054103   
    449. D(C   4,C   3,C   2,C  16)     83.5290         0.054103   
    450. D(H   9,C   3,C   2,C   1)    180.0000         0.054103   
    451. D(H   9,C   3,C   2,C  12)   -114.1833         0.054103   
    452. D(C   4,C   3,C   2,C  15)    102.5288         0.054103   
    453. D(C  16,C   3,C   2,C  17)    -17.7123         0.054103   
    454. D(H   9,C   3,C   2,C  15)    -77.4712         0.054103   
    455. D(C  16,C   3,C   2,C  15)     18.9998         0.054103   
    456. D(C  16,C   3,C   2,C  14)     18.9998         0.054103   
    457. D(H  10,C   4,C   3,C  15)   -102.5288         0.047243   
    458. D(H  10,C   4,C   3,C  17)   -119.1557         0.047243   
    459. D(H  10,C   4,C   3,C  14)   -119.1557         0.047243   
    460. D(C  16,C   4,C   3,H   9)    102.5288         0.047243   
    461. D(H  10,C   4,C   3,H   9)      0.0000         0.047243   
    462. D(H  10,C   4,C   3,C  16)   -102.5288         0.047243   
    463. D(C   5,C   4,C   3,C   2)      0.0000         0.047243   
    464. D(C   5,C   4,C   3,C  15)     77.4712         0.047243   
    465. D(C   5,C   4,C   3,C  16)     77.4712         0.047243   
    466. D(C   5,C   4,C   3,C  17)     60.8443         0.047243   
    467. D(C  16,C   4,C   3,C  17)    -16.6269         0.047243   
    468. D(C   5,C   4,C   3,H   9)    180.0000         0.047243   
    469. D(C  16,C   4,C   3,C   2)    -77.4712         0.047243   
    470. D(C   5,C   4,C   3,C  14)     60.8443         0.047243   
    471. D(C  16,C   4,C   3,C  15)      0.0000         0.047243   
    472. D(H  10,C   4,C   3,C   2)    180.0000         0.047243   
    473. D(H  11,C   5,C   4,C  15)   -127.9574         0.044273   
    474. D(C  17,C   5,C   4,C  16)      0.0000         0.044273   
    475. D(H  11,C   5,C   0,C  17)    102.5288         0.047243   
    476. D(C  17,C   5,C   4,H  10)    113.9625         0.044273   
    477. D(C  17,C   5,C   4,C  15)    -13.9949         0.044273   
    478. D(H  11,C   5,C   4,H  10)      0.0000         0.044273   
    479. D(C   4,C   5,C   0,C   1)      0.0000         0.047243   
    480. D(C  17,C   5,C   0,H   6)   -102.5288         0.047243   
    481. D(C   4,C   5,C   0,C  13)    -60.8443         0.047243   
    482. D(C   4,C   5,C   0,C  16)    -60.8443         0.047243   
    483. D(H  11,C   5,C   0,C  16)    119.1557         0.047243   
    484. D(C  17,C   5,C   0,C  16)     16.6269         0.047243   
    485. D(H  11,C   5,C   0,C  12)    102.5288         0.047243   
    486. D(C  17,C   5,C   4,C   3)    -66.0375         0.044273   
    487. D(C   0,C   5,C   4,H  10)    180.0000         0.044273   
    488. D(C   0,C   5,C   4,C  15)     52.0426         0.044273   
    489. D(C   0,C   5,C   4,C  17)     66.0375         0.044273   
    490. D(H  11,C   5,C   4,C   3)    180.0000         0.044273   
    491. D(H  11,C   5,C   4,C  17)   -113.9625         0.044273   
    492. D(C   0,C   5,C   4,C   3)      0.0000         0.044273   
    493. D(C  17,C   5,C   0,C   1)     77.4712         0.047243   
    494. D(C  17,C   5,C   0,C  12)      0.0000         0.047243   
    495. D(C   4,C   5,C   0,C  12)    -77.4712         0.047243   
    496. D(H  11,C   5,C   0,C   1)    180.0000         0.047243   
    497. D(H  11,C   5,C   0,C  13)    119.1557         0.047243   
    498. D(C   0,C   5,C   4,C  16)     66.0375         0.044273   
    499. D(C   4,C   5,C   0,H   6)    180.0000         0.047243   
    500. D(H  11,C   5,C   4,C  16)   -113.9625         0.044273   
    501. D(H  11,C   5,C   0,H   6)      0.0000         0.047243   
    502. D(C   4,C   5,C   0,C  17)    -77.4712         0.047243   
    503. D(H  18,C  12,C   0,C  17)   -122.2849         0.010000   
    504. D(C  17,C  12,C   0,C  13)   -115.4302         0.010000   
    505. D(H  18,C  12,C   0,C   5)   -122.2849         0.010000   
    506. D(C  13,C  12,C   0,C   1)     -0.0000         0.010000   
    507. D(C  13,C  12,C   0,C   5)    115.4302         0.010000   
    508. D(C  17,C  12,C   0,C   1)   -115.4302         0.010000   
    509. D(C  13,C  12,C   0,C  17)    115.4302         0.010000   
    510. D(H  18,C  12,C   0,C   1)    122.2849         0.010000   
    511. D(C  17,C  12,C   0,H   6)    122.2849         0.010000   
    512. D(C  13,C  12,C   0,H   6)   -122.2849         0.010000   
    513. D(H  18,C  12,C   0,H   6)      0.0000         0.010000   
    514. D(C  13,C  12,C   0,C  16)     85.5308         0.010000   
    515. D(C  17,C  12,C   0,C  16)    -29.8995         0.010000   
    516. D(H  18,C  12,C   2,C  14)    147.3875         0.010000   
    517. D(C  13,C  12,C   2,C  15)     60.8707         0.010000   
    518. D(C  17,C  12,C   0,C   5)     -0.0000         0.010000   
    519. D(C  17,C  12,C   5,H  11)     71.3028         0.010000   
    520. D(C  13,C  12,C   5,C   4)     49.9138         0.010000   
    521. D(C   1,C  12,C   5,C   4)     83.2801         0.010000   
    522. D(H  18,C  12,C   5,C  16)   -154.0374         0.010000   
    523. D(C  17,C  12,C   1,C  14)    -91.2122         0.010000   
    524. D(H  18,C  12,C   1,C   0)    -59.4231         0.010000   
    525. D(H  18,C  12,C   5,C   4)    180.0000         0.010000   
    526. D(C   1,C  12,C   5,C   0)    -37.9365         0.010000   
    527. D(C  17,C  12,C   5,C   4)    -58.7834         0.010000   
    528. D(H  18,C  12,C   1,C  13)    120.5769         0.010000   
    529. D(H  18,C  12,C   1,C  16)   -149.3900         0.010000   
    530. D(C  17,C  12,C   5,C   0)    180.0000         0.010000   
    531. D(C  13,C  12,C   5,C  17)    108.6972         0.010000   
    532. D(C  17,C  12,C   2,C  16)    -31.3314         0.010000   
    533. D(H  18,C  12,C   1,C  14)    149.9906         0.010000   
    534. D(C  13,C  12,C   2,C   3)    126.7202         0.010000   
    535. D(C  13,C  12,C   5,C   0)    -71.3028         0.010000   
    536. D(H  18,C  12,C   2,C  17)   -114.1505         0.010000   
    537. D(H  18,C  12,C   2,C  16)   -145.4819         0.010000   
    538. D(H  18,C  12,C   2,C  15)    180.0000         0.010000   
    539. D(H  18,C  12,C   2,C   3)   -114.1505         0.010000   
    540. D(C  17,C  12,C   2,C   1)    114.1505         0.010000   
    541. D(H  18,C  12,C   2,H   8)    119.1293         0.010000   
    542. D(C  13,C  12,C   1,C  16)     90.0332         0.010000   
    543. D(C  17,C  12,C   2,C  15)    -65.8495         0.010000   
    544. D(C  13,C  12,C   1,C  14)     29.4138         0.010000   
    545. D(C  17,C  12,C   2,C   3)      0.0000         0.010000   
    546. D(C  17,C  12,C   1,C   0)     59.3740         0.010000   
    547. D(C  13,C  12,C   5,C  16)     75.8764         0.010000   
    548. D(C  13,C  12,C   2,C   1)   -119.1293         0.010000   
    549. D(H  18,C  12,C   1,C   2)    180.0000         0.010000   
    550. D(C  17,C  12,C   2,C  14)    -98.4620         0.010000   
    551. D(C  17,C  12,C   1,C  15)    -61.2028         0.010000   
    552. D(H  18,C  12,C   5,C  17)   -121.2166         0.010000   
    553. D(C  17,C  12,C   1,C  16)    -30.5928         0.010000   
    554. D(C  17,C  12,C   2,C  13)   -126.7202         0.010000   
    555. D(H  18,C  12,C   2,C   1)      0.0000         0.010000   
    556. D(C  13,C  12,C   2,C  17)    126.7202         0.010000   
    557. D(C   1,C  12,C   0,H   6)   -122.2849         0.010000   
    558. D(C  13,C  12,C   1,C   0)    180.0000         0.010000   
    559. D(C  13,C  12,C   2,H   8)     -0.0000         0.010000   
    560. D(C  13,C  12,C   1,H   7)    -59.3740         0.010000   
    561. D(C  13,C  12,C   1,C  15)     59.4231         0.010000   
    562. D(C  17,C  12,C   1,H   7)   -180.0000         0.010000   
    563. D(H  18,C  12,C   0,C  16)   -152.1844         0.010000   
    564. D(C  13,C  12,C   5,H  11)    180.0000         0.010000   
    565. D(C  13,C  12,C   2,C  14)     28.2582         0.010000   
    566. D(C  13,C  12,C   1,C  17)    120.6260         0.010000   
    567. D(C  13,C  12,C   2,C  16)     95.3888         0.010000   
    568. D(H  18,C  12,C   1,C  17)   -118.7972         0.010000   
    569. D(H  18,C  12,C   1,H   7)     61.2029         0.010000   
    570. D(C  17,C  12,C   5,C  16)    -32.8208         0.010000   
    571. D(H  18,C  12,C   5,H  11)    -49.9138         0.010000   
    572. D(H  18,C  12,C   5,C   0)     58.7834         0.010000   
    573. D(C  13,C  12,C   1,C   2)     59.4231         0.010000   
    574. D(C  17,C  12,C   1,C   2)    -61.2028         0.010000   
    575. D(C  17,C  12,C   2,H   8)   -126.7202         0.010000   
    576. D(C  17,C  12,C   1,C  13)   -120.6260         0.010000   
    577. D(C   1,C  12,C   0,C   5)    115.4302         0.010000   
    578. D(H  18,C  12,C   0,C  13)    122.2849         0.010000   
    579. D(C   1,C  13,C  12,C  17)     77.4712         0.047243   
    580. D(H  19,C  13,C  12,C   0)    102.5288         0.047243   
    581. D(C  14,C  13,C   1,H   7)   -122.2849         0.010000   
    582. D(C  14,C  13,C  12,C   5)    -60.8443         0.047243   
    583. D(H  19,C  13,C   1,C   0)   -115.4302         0.010000   
    584. D(C  14,C  13,C  12,H  18)    180.0000         0.047243   
    585. D(H  19,C  13,C   1,C  17)   -147.7151         0.010000   
    586. D(H  19,C  13,C   2,C  15)    145.4928         0.010000   
    587. D(H  19,C  13,C   2,H   8)     60.7400         0.010000   
    588. D(C  14,C  13,C   2,C  17)     98.4397         0.010000   
    589. D(C  12,C  13,C   2,C  15)    -95.2472         0.010000   
    590. D(C  14,C  13,C   2,C  16)     65.9067         0.010000   
    591. D(C  14,C  13,C   2,C   3)     65.9067         0.010000   
    592. D(C  12,C  13,C   2,C  17)    -28.2070         0.010000   
    593. D(C  14,C  13,C   2,C  15)     31.3995         0.010000   
    594. D(C  14,C  13,C   2,H   8)    -53.3533         0.010000   
    595. D(C  14,C  13,C   2,C  12)    126.6468         0.010000   
    596. D(C  12,C  13,C   2,H   8)    180.0000         0.010000   
    597. D(C  12,C  13,C   2,C   3)    -60.7400         0.010000   
    598. D(C  12,C  13,C   2,C   1)     53.3532         0.010000   
    599. D(C  14,C  13,C  12,C  17)      0.0000         0.047243   
    600. D(H  19,C  13,C   1,H   7)     -0.0000         0.010000   
    601. D(H  19,C  13,C   1,C   2)    122.2849         0.010000   
    602. D(C  14,C  13,C   1,C  15)     27.8156         0.010000   
    603. D(C  14,C  13,C   1,C  16)     57.7151         0.010000   
    604. D(C  14,C  13,C   1,C  17)     90.0000         0.010000   
    605. D(H  19,C  13,C  12,C  17)    180.0000         0.047243   
    606. D(C  14,C  13,C  12,C   0)    -77.4712         0.047243   
    607. D(C  14,C  13,C   1,C  12)    122.2849         0.010000   
    608. D(C  14,C  13,C  12,C   2)    -60.8443         0.047243   
    609. D(H  19,C  13,C  12,C   2)    119.1557         0.047243   
    610. D(C  14,C  13,C  12,C   1)    -77.4712         0.047243   
    611. D(H  19,C  13,C   1,C  12)   -115.4302         0.010000   
    612. D(H  19,C  13,C   2,C  16)    180.0000         0.010000   
    613. D(H  19,C  13,C  12,C   1)    102.5288         0.047243   
    614. D(C  14,C  13,C   1,C   2)      0.0000         0.010000   
    615. D(C  14,C  13,C   1,C   0)    122.2849         0.010000   
    616. D(H  19,C  13,C  12,C   5)    119.1557         0.047243   
    617. D(C  12,C  13,C   2,C  16)    -60.7400         0.010000   
    618. D(C  12,C  13,C   2,C  14)   -126.6468         0.010000   
    619. D(C  12,C  13,C   1,C  15)    -94.4692         0.010000   
    620. D(C  14,C  13,C   2,C   1)    180.0000         0.010000   
    621. D(C  12,C  13,C   1,C  14)   -122.2849         0.010000   
    622. D(H  19,C  13,C  12,H  18)      0.0000         0.047243   
    623. D(C  12,C  13,C   1,C  17)    -32.2849         0.010000   
    624. D(H  19,C  13,C   0,C  12)   -108.6972         0.010000   
    625. D(H  19,C  13,C   0,C   1)     71.3028         0.010000   
    626. D(H  19,C  13,C   2,C   1)    -65.9067         0.010000   
    627. D(C  14,C  13,C   0,H   6)    180.0000         0.010000   
    628. D(C  14,C  13,C   0,C   1)    -58.7834         0.010000   
    629. D(C  12,C  13,C   0,C  16)    -71.3028         0.010000   
    630. D(C  12,C  13,C   0,C  17)    -37.9365         0.010000   
    631. D(H  19,C  13,C   2,C   3)    180.0000         0.010000   
    632. D(C  12,C  13,C   0,H   6)     58.7834         0.010000   
    633. D(C  12,C  13,C   0,C   5)    -71.3028         0.010000   
    634. D(C  12,C  13,C   0,C   1)    180.0000         0.010000   
    635. D(C  14,C  13,C   0,C  17)     83.2801         0.010000   
    636. D(C  14,C  13,C   0,C   5)     49.9138         0.010000   
    637. D(H  19,C  13,C   0,H   6)    -49.9138         0.010000   
    638. D(C  14,C  13,C   0,C  16)     49.9138         0.010000   
    639. D(C  12,C  13,C   1,C  16)    -64.5698         0.010000   
    640. D(H  19,C  13,C   0,C  17)   -146.6337         0.010000   
    641. D(C  12,C  13,C   1,C   0)     -0.0000         0.010000   
    642. D(C  12,C  13,C   1,C   2)   -122.2849         0.010000   
    643. D(C  12,C  13,C   1,H   7)    115.4302         0.010000   
    644. D(C  14,C  13,C   0,C  12)    121.2166         0.010000   
    645. D(C   1,C  13,C  12,C   2)     16.6269         0.047243   
    646. D(C   1,C  13,C  12,C   0)      0.0000         0.047243   
    647. D(C   1,C  13,C  12,H  18)   -102.5288         0.047243   
    648. D(H  19,C  13,C   0,C   5)    180.0000         0.010000   
    649. D(H  20,C  14,C   2,C  15)    115.4302         0.010000   
    650. D(C  13,C  14,C   3,C   4)    -49.9138         0.010000   
    651. D(C  15,C  14,C   3,C  17)     71.3028         0.010000   
    652. D(H  20,C  14,C   3,C  16)    146.6337         0.010000   
    653. D(C  15,C  14,C  13,C   0)    -52.0426         0.044273   
    654. D(C   2,C  14,C  13,C  12)     66.0375         0.044273   
    655. D(C   2,C  14,C  13,H  19)   -113.9625         0.044273   
    656. D(C   2,C  14,C  13,C   0)     13.9949         0.044273   
    657. D(H  20,C  14,C  13,C   0)    127.9574         0.044273   
    658. D(C   2,C  14,C  13,C   1)      0.0000         0.044273   
    659. D(H  20,C  14,C  13,C   2)    113.9625         0.044273   
    660. D(H  20,C  14,C  13,C   1)    113.9625         0.044273   
    661. D(H  20,C  14,C  13,C  12)    180.0000         0.044273   
    662. D(C  15,C  14,C  13,C   2)    -66.0375         0.044273   
    663. D(C  15,C  14,C  13,H  19)    180.0000         0.044273   
    664. D(C  15,C  14,C  13,C  12)      0.0000         0.044273   
    665. D(H  20,C  14,C   3,C  15)    108.6972         0.010000   
    666. D(H  20,C  14,C   3,H   9)     49.9138         0.010000   
    667. D(H  20,C  14,C   3,C   4)   -180.0000         0.010000   
    668. D(H  20,C  14,C   3,C   2)    -71.3028         0.010000   
    669. D(C  15,C  14,C   3,C  16)     37.9365         0.010000   
    670. D(C  15,C  14,C   3,H   9)    -58.7834         0.010000   
    671. D(C  15,C  14,C   3,C   4)     71.3028         0.010000   
    672. D(C  13,C  14,C   3,C  17)    -49.9138         0.010000   
    673. D(C  13,C  14,C   3,C  15)   -121.2166         0.010000   
    674. D(C  13,C  14,C   3,C  16)    -83.2801         0.010000   
    675. D(C  13,C  14,C   3,H   9)    180.0000         0.010000   
    676. D(C  13,C  14,C   3,C   2)     58.7834         0.010000   
    677. D(H  20,C  14,C   2,C  16)    147.7151         0.010000   
    678. D(H  20,C  14,C   2,H   8)      0.0000         0.010000   
    679. D(H  20,C  14,C   2,C   3)    115.4302         0.010000   
    680. D(H  20,C  14,C   2,C   1)   -122.2849         0.010000   
    681. D(C  15,C  14,C   2,C  12)     94.4692         0.010000   
    682. D(C  15,C  14,C   2,C  13)    122.2849         0.010000   
    683. D(C  15,C  14,C   2,C  17)     64.5698         0.010000   
    684. D(C  15,C  14,C   2,C  16)     32.2849         0.010000   
    685. D(C  15,C  14,C   2,H   8)   -115.4302         0.010000   
    686. D(C  15,C  14,C   2,C   3)      0.0000         0.010000   
    687. D(C  15,C  14,C   2,C   1)    122.2849         0.010000   
    688. D(C  13,C  14,C   2,C  12)    -27.8156         0.010000   
    689. D(C  13,C  14,C   2,C  16)    -90.0000         0.010000   
    690. D(C  13,C  14,C   2,H   8)    122.2849         0.010000   
    691. D(C  13,C  14,C   1,C  17)    -65.9067         0.010000   
    692. D(C  15,C  14,C   3,C   2)   -180.0000         0.010000   
    693. D(H  20,C  14,C   1,C  12)   -145.4928         0.010000   
    694. D(C  15,C  14,C   1,C   2)    -53.3532         0.010000   
    695. D(H  20,C  14,C   1,C   0)   -180.0000         0.010000   
    696. D(C  15,C  14,C   1,C  16)     28.2070         0.010000   
    697. D(C  15,C  14,C   1,C  17)     60.7400         0.010000   
    698. D(C  15,C  14,C   1,C  12)     95.2472         0.010000   
    699. D(C  15,C  14,C   1,H   7)   -180.0000         0.010000   
    700. D(C  15,C  14,C   1,C  13)    126.6468         0.010000   
    701. D(H  20,C  14,C   1,C   2)     65.9067         0.010000   
    702. D(C  15,C  14,C   1,C   0)     60.7400         0.010000   
    703. D(H  20,C  14,C   1,H   7)    -60.7400         0.010000   
    704. D(C  15,C  14,C  13,C   1)    -66.0375         0.044273   
    705. D(C  13,C  14,C   1,C  15)   -126.6468         0.010000   
    706. D(C  13,C  14,C   1,C  16)    -98.4397         0.010000   
    707. D(C  13,C  14,C   2,C   3)   -122.2849         0.010000   
    708. D(H  20,C  14,C  13,H  19)      0.0000         0.044273   
    709. D(C  13,C  14,C   1,C  12)    -31.3995         0.010000   
    710. D(C  13,C  14,C   1,H   7)     53.3533         0.010000   
    711. D(C  13,C  14,C   1,C   2)    180.0000         0.010000   
    712. D(C  13,C  14,C   2,C  15)   -122.2849         0.010000   
    713. D(C  13,C  14,C   2,C   1)      0.0000         0.010000   
    714. D(C  13,C  14,C   1,C   0)    -65.9067         0.010000   
    715. D(C  13,C  14,C   2,C  17)    -57.7151         0.010000   
    716. D(H  20,C  14,C   1,C  17)   -180.0000         0.010000   
    717. D(C   3,C  15,C  14,H  20)   -102.5288         0.047243   
    718. D(C   3,C  15,C  14,C  13)     77.4712         0.047243   
    719. D(C   2,C  15,C  14,C   3)      0.0000         0.047243   
    720. D(C   2,C  15,C  14,H  20)   -102.5288         0.047243   
    721. D(C   2,C  15,C  14,C  13)     77.4712         0.047243   
    722. D(H  21,C  15,C  14,C   3)    102.5288         0.047243   
    723. D(H  21,C  15,C  14,C   2)    102.5288         0.047243   
    724. D(H  21,C  15,C  14,H  20)      0.0000         0.047243   
    725. D(H  21,C  15,C  14,C  13)    180.0000         0.047243   
    726. D(C  16,C  15,C  14,C   1)    -60.8443         0.047243   
    727. D(C  16,C  15,C  14,C   2)    -77.4712         0.047243   
    728. D(C  16,C  15,C  14,H  20)    180.0000         0.047243   
    729. D(C  16,C  15,C  14,C  13)      0.0000         0.047243   
    730. D(C   2,C  15,C   4,C   5)    -83.2801         0.010000   
    731. D(C   2,C  15,C   4,C   3)     37.9365         0.010000   
    732. D(H  21,C  15,C   4,C  17)    154.0374         0.010000   
    733. D(H  21,C  15,C   4,H  10)     49.9138         0.010000   
    734. D(H  21,C  15,C   4,C   5)    180.0000         0.010000   
    735. D(H  21,C  15,C   4,C   3)    -58.7834         0.010000   
    736. D(C  16,C  15,C   4,H  10)    -71.3028         0.010000   
    737. D(C  16,C  15,C   4,C   5)     58.7834         0.010000   
    738. D(C  16,C  15,C   4,C   3)   -180.0000         0.010000   
    739. D(C  14,C  15,C   4,C  16)   -108.6972         0.010000   
    740. D(C  14,C  15,C   4,H  10)   -180.0000         0.010000   
    741. D(C  14,C  15,C   4,C   5)    -49.9138         0.010000   
    742. D(C  14,C  15,C   4,C   3)     71.3028         0.010000   
    743. D(C   2,C  15,C   3,H   9)    122.2849         0.010000   
    744. D(C   2,C  15,C   3,C   4)   -115.4302         0.010000   
    745. D(H  21,C  15,C   3,C  14)   -122.2849         0.010000   
    746. D(H  21,C  15,C   3,C  16)    122.2849         0.010000   
    747. D(H  21,C  15,C   3,H   9)      0.0000         0.010000   
    748. D(H  21,C  15,C   3,C   4)    122.2849         0.010000   
    749. D(C  16,C  15,C   3,C  14)    115.4302         0.010000   
    750. D(C  16,C  15,C   3,C  17)     29.8995         0.010000   
    751. D(C  16,C  15,C   3,H   9)   -122.2849         0.010000   
    752. D(C  16,C  15,C   3,C   2)    115.4302         0.010000   
    753. D(C  14,C  15,C   3,C  17)    -85.5308         0.010000   
    754. D(C  14,C  15,C   3,C  16)   -115.4302         0.010000   
    755. D(C  14,C  15,C   3,H   9)    122.2849         0.010000   
    756. D(C  14,C  15,C   3,C   4)   -115.4302         0.010000   
    757. D(C  14,C  15,C   3,C   2)      0.0000         0.010000   
    758. D(H  21,C  15,C   2,C  13)   -149.9906         0.010000   
    759. D(H  21,C  15,C   2,H   8)    -61.2029         0.010000   
    760. D(C  16,C  15,C   2,C  13)     91.2122         0.010000   
    761. D(C  16,C  15,C   2,C   3)    -59.3740         0.010000   
    762. D(C  14,C  15,C   2,C  13)    -29.4138         0.010000   
    763. D(C  14,C  15,C   2,C  17)    -90.0332         0.010000   
    764. D(C  16,C  15,C   3,C   4)      0.0000         0.010000   
    765. D(C  14,C  15,C   2,C   1)    -59.4231         0.010000   
    766. D(H  21,C  15,C   1,C  12)    180.0000         0.010000   
    767. D(C  16,C  15,C   1,C  14)    126.7202         0.010000   
    768. D(H  21,C  15,C   3,C   2)   -122.2849         0.010000   
    769. D(C  16,C  15,C   1,C  12)     65.8495         0.010000   
    770. D(C  16,C  15,C   1,H   7)    126.7202         0.010000   
    771. D(C  14,C  15,C   1,C  13)    -28.2582         0.010000   
    772. D(H  21,C  15,C   3,C  17)    152.1844         0.010000   
    773. D(C  14,C  15,C   1,C   2)    119.1293         0.010000   
    774. D(C  14,C  15,C   1,C   0)   -126.7202         0.010000   
    775. D(C  14,C  15,C   1,C  17)    -95.3888         0.010000   
    776. D(C  16,C  15,C   1,C   0)      0.0000         0.010000   
    777. D(C  14,C  15,C   1,C  16)   -126.7202         0.010000   
    778. D(C  14,C  15,C   1,C  12)    -60.8707         0.010000   
    779. D(C  16,C  15,C   1,C  17)     31.3314         0.010000   
    780. D(C  14,C  15,C   4,C  17)    -75.8764         0.010000   
    781. D(C  16,C  15,C   1,C   2)   -114.1505         0.010000   
    782. D(H  21,C  15,C   1,C   2)      0.0000         0.010000   
    783. D(H  21,C  15,C   1,C   0)    114.1505         0.010000   
    784. D(C  16,C  15,C   4,C  17)     32.8208         0.010000   
    785. D(H  21,C  15,C   1,H   7)   -119.1293         0.010000   
    786. D(H  21,C  15,C   1,C  13)   -147.3875         0.010000   
    787. D(H  21,C  15,C   1,C  16)    114.1505         0.010000   
    788. D(H  21,C  15,C   4,C  16)    121.2166         0.010000   
    789. D(H  21,C  15,C   1,C  17)    145.4819         0.010000   
    790. D(C  16,C  15,C   1,C  13)     98.4620         0.010000   
    791. D(C  14,C  15,C   1,H   7)      0.0000         0.010000   
    792. D(C  14,C  15,C   2,C  16)   -120.6260         0.010000   
    793. D(C  14,C  15,C   2,C  12)    -59.4231         0.010000   
    794. D(C  14,C  15,C   2,H   8)     59.3740         0.010000   
    795. D(C  16,C  15,C   2,H   8)    180.0000         0.010000   
    796. D(C  16,C  15,C  14,C   3)    -77.4712         0.047243   
    797. D(C  16,C  15,C   2,C   1)     61.2028         0.010000   
    798. D(C  16,C  15,C   2,C  14)    120.6260         0.010000   
    799. D(C  14,C  15,C   2,C   3)   -180.0000         0.010000   
    800. D(H  21,C  15,C  14,C   1)    119.1557         0.047243   
    801. D(C  16,C  15,C   2,C  12)     61.2028         0.010000   
    802. D(H  21,C  15,C   2,C   1)    180.0000         0.010000   
    803. D(H  21,C  15,C   2,C   3)     59.4231         0.010000   
    804. D(C   2,C  15,C  14,C   1)     16.6269         0.047243   
    805. D(H  21,C  15,C   2,C  14)   -120.5769         0.010000   
    806. D(H  21,C  15,C   2,C  17)    149.3900         0.010000   
    807. D(H  21,C  15,C   2,C  16)    118.7972         0.010000   
    808. D(C  16,C  15,C   2,C  17)     30.5928         0.010000   
    809. D(C  15,C  16,C   4,C   5)   -122.2849         0.010000   
    810. D(C  15,C  16,C   4,C   3)      0.0000         0.010000   
    811. D(C   2,C  16,C   3,C  14)     29.9762         0.010000   
    812. D(C   2,C  16,C   3,C  15)     59.3740         0.010000   
    813. D(C   2,C  16,C   3,H   9)    118.7972         0.010000   
    814. D(C   2,C  16,C   3,C   4)   -120.6260         0.010000   
    815. D(H  22,C  16,C   3,C  17)    118.7971         0.010000   
    816. D(H  22,C  16,C   3,C  15)   -120.6260         0.010000   
    817. D(H  22,C  16,C   3,H   9)    -61.2029         0.010000   
    818. D(H  22,C  16,C   3,C   4)     59.3740         0.010000   
    819. D(H  22,C  16,C   3,C   2)    180.0000         0.010000   
    820. D(C  17,C  16,C   3,C  14)     91.1791         0.010000   
    821. D(C  17,C  16,C   3,C  15)    120.5769         0.010000   
    822. D(C  17,C  16,C   3,C   4)    -59.4231         0.010000   
    823. D(C  17,C  16,C   3,C   2)     61.2028         0.010000   
    824. D(C  15,C  16,C   3,C  14)    -29.3978         0.010000   
    825. D(C  15,C  16,C   3,H   9)     59.4231         0.010000   
    826. D(C  15,C  16,C   3,C   4)   -180.0000         0.010000   
    827. D(C  15,C  16,C   3,C   2)    -59.3740         0.010000   
    828. D(C   3,C  16,C   2,C   1)    120.6263         0.010000   
    829. D(H  22,C  16,C   2,C  12)    150.0078         0.010000   
    830. D(H  22,C  16,C   2,C  13)    180.0000         0.010000   
    831. D(H  22,C  16,C   2,C  17)    120.6263         0.010000   
    832. D(H  22,C  16,C   2,C  14)   -149.3737         0.010000   
    833. D(H  22,C  16,C   2,C  15)   -118.7474         0.010000   
    834. D(H  22,C  16,C   2,H   8)   -118.7474         0.010000   
    835. D(H  22,C  16,C   2,C   1)    120.6263         0.010000   
    836. D(C  17,C  16,C   2,C  12)     29.3815         0.010000   
    837. D(C  17,C  16,C   2,C  13)     59.3737         0.010000   
    838. D(C  17,C  16,C   2,C  15)    120.6263         0.010000   
    839. D(C  17,C  16,C   2,H   8)    120.6263         0.010000   
    840. D(C  17,C  16,C   2,C   3)   -120.6263         0.010000   
    841. D(C  15,C  16,C   2,C  12)    -91.2449         0.010000   
    842. D(C  15,C  16,C   2,C  13)    -61.2527         0.010000   
    843. D(C  15,C  16,C   2,C  17)   -120.6263         0.010000   
    844. D(C  15,C  16,C   2,C  14)    -30.6263         0.010000   
    845. D(C  15,C  16,C   2,H   8)     -0.0000         0.010000   
    846. D(C  15,C  16,C   2,C   3)    118.7473         0.010000   
    847. D(C  15,C  16,C   2,C   1)   -120.6263         0.010000   
    848. D(C   3,C  16,C   1,C   2)    -32.3114         0.010000   
    849. D(C   3,C  16,C   1,C   0)     90.0626         0.010000   
    850. D(H  22,C  16,C   1,C  15)   -122.2846         0.010000   
    851. D(H  22,C  16,C   1,C  14)   -150.0733         0.010000   
    852. D(H  22,C  16,C   1,C  13)    180.0000         0.010000   
    853. D(H  22,C  16,C   1,C  17)    115.3413         0.010000   
    854. D(H  22,C  16,C   1,C  12)    147.6527         0.010000   
    855. D(H  22,C  16,C   1,H   7)    180.0000         0.010000   
    856. D(H  22,C  16,C   1,C   2)    -64.6587         0.010000   
    857. D(H  22,C  16,C   1,C   0)     57.7154         0.010000   
    858. D(C  17,C  16,C   1,C  15)    122.3741         0.010000   
    859. D(C  17,C  16,C   1,C  14)     94.5854         0.010000   
    860. D(C  17,C  16,C   2,C   1)      0.0000         0.010000   
    861. D(C  17,C  16,C   1,C  13)     64.6587         0.010000   
    862. D(C  17,C  16,C   1,C  12)     32.3114         0.010000   
    863. D(C  17,C  16,C   1,H   7)     64.6587         0.010000   
    864. D(C  17,C  16,C   2,C  14)     90.0000         0.010000   
    865. D(C  17,C  16,C   1,C   2)    180.0000         0.010000   
    866. D(C  17,C  16,C   1,C   0)    -57.6259         0.010000   
    867. D(C  15,C  16,C   1,C  14)    -27.7886         0.010000   
    868. D(H  22,C  16,C   2,C   3)     -0.0000         0.010000   
    869. D(C  15,C  16,C   1,C  13)    -57.7154         0.010000   
    870. D(C  15,C  16,C   1,C  17)   -122.3741         0.010000   
    871. D(C  15,C  16,C   1,C  12)    -90.0626         0.010000   
    872. D(C  15,C  16,C   1,H   7)    -57.7154         0.010000   
    873. D(C  15,C  16,C   1,C   2)     57.6259         0.010000   
    874. D(C  15,C  16,C   1,C   0)    180.0000         0.010000   
    875. D(C   3,C  16,C   0,C  17)    180.0000         0.010000   
    876. D(C   3,C  16,C   2,H   8)   -118.7474         0.010000   
    877. D(C   3,C  16,C   0,H   6)    180.0000         0.010000   
    878. D(C   3,C  16,C   0,C   5)     60.8707         0.010000   
    879. D(C   3,C  16,C   0,C   1)    -65.8495         0.010000   
    880. D(C  15,C  16,C   3,C  17)   -120.5769         0.010000   
    881. D(H  22,C  16,C   0,C  13)    180.0000         0.010000   
    882. D(H  22,C  16,C   0,C  12)    151.7418         0.010000   
    883. D(H  22,C  16,C   0,C  17)    119.1293         0.010000   
    884. D(C  17,C  16,C   3,H   9)    180.0000         0.010000   
    885. D(H  22,C  16,C   0,H   6)    119.1293         0.010000   
    886. D(H  22,C  16,C   0,C   5)     -0.0000         0.010000   
    887. D(H  22,C  16,C   0,C   1)   -126.7202         0.010000   
    888. D(C  17,C  16,C   0,C  13)     60.8707         0.010000   
    889. D(C  17,C  16,C   0,C  12)     32.6125         0.010000   
    890. D(C  17,C  16,C   0,H   6)      0.0000         0.010000   
    891. D(C  17,C  16,C   0,C   5)   -119.1293         0.010000   
    892. D(H  22,C  16,C   3,C  14)   -150.0238         0.010000   
    893. D(C  17,C  16,C   0,C   1)    114.1505         0.010000   
    894. D(C  15,C  16,C   0,C  13)    -53.2798         0.010000   
    895. D(C  15,C  16,C   0,C  12)    -81.5380         0.010000   
    896. D(C   2,C  16,C   3,C  17)    -61.2028         0.010000   
    897. D(C  15,C  16,C   0,C  17)   -114.1505         0.010000   
    898. D(C  15,C  16,C   0,H   6)   -114.1505         0.010000   
    899. D(C  15,C  16,C   0,C   5)    126.7202         0.010000   
    900. D(C  15,C  16,C   4,H  10)    115.4302         0.010000   
    901. D(C  15,C  16,C   0,C   1)      0.0000         0.010000   
    902. D(C   2,C  16,C  15,C   3)    -18.9998         0.054103   
    903. D(C   2,C  16,C  15,H  21)    -96.4710         0.054103   
    904. D(C   2,C  16,C  15,C  14)     83.5290         0.054103   
    905. D(C   3,C  16,C  15,C   4)      0.0000         0.054103   
    906. D(C   3,C  16,C  15,C   1)     36.7121         0.054103   
    907. D(C   3,C  16,C  15,C   2)     18.9998         0.054103   
    908. D(C   3,C  16,C  15,H  21)    -77.4712         0.054103   
    909. D(H  22,C  16,C  15,C   4)     77.4712         0.054103   
    910. D(H  22,C  16,C  15,C   1)    114.1833         0.054103   
    911. D(H  22,C  16,C  15,C   3)     77.4712         0.054103   
    912. D(H  22,C  16,C  15,H  21)      0.0000         0.054103   
    913. D(H  22,C  16,C  15,C  14)    180.0000         0.054103   
    914. D(C  17,C  16,C  15,C   4)   -102.5288         0.054103   
    915. D(C  17,C  16,C  15,C   3)   -102.5288         0.054103   
    916. D(C  17,C  16,C  15,C   2)    -83.5290         0.054103   
    917. D(C  17,C  16,C  15,H  21)    180.0000         0.054103   
    918. D(C  17,C  16,C  15,C  14)      0.0000         0.054103   
    919. D(C   3,C  16,C   5,C  12)   -121.2713         0.010000   
    920. D(C   3,C  16,C   5,C  17)   -148.6005         0.010000   
    921. D(C   3,C  16,C   5,H  11)    145.4928         0.010000   
    922. D(C   3,C  16,C   5,C   0)    -95.2472         0.010000   
    923. D(H  22,C  16,C   5,C  12)    153.9759         0.010000   
    924. D(H  22,C  16,C   5,C  17)    126.6467         0.010000   
    925. D(H  22,C  16,C   5,H  11)     60.7400         0.010000   
    926. D(H  22,C  16,C   5,C   4)    -53.3533         0.010000   
    927. D(H  22,C  16,C   5,C   0)    180.0000         0.010000   
    928. D(C  17,C  16,C   5,C  12)     27.3292         0.010000   
    929. D(C  17,C  16,C   5,H  11)    -65.9067         0.010000   
    930. D(C  17,C  16,C   5,C   4)    180.0000         0.010000   
    931. D(C  17,C  16,C   5,C   0)     53.3532         0.010000   
    932. D(C   3,C  16,C   5,C   4)     31.3995         0.010000   
    933. D(C  15,C  16,C   5,C  12)    -86.7641         0.010000   
    934. D(C  15,C  16,C   5,C  17)   -114.0933         0.010000   
    935. D(C  15,C  16,C   5,H  11)    180.0000         0.010000   
    936. D(C  15,C  16,C   5,C   4)     65.9067         0.010000   
    937. D(C  15,C  16,C   5,C   0)    -60.7400         0.010000   
    938. D(C   2,C  16,C   4,C   5)    -90.0000         0.010000   
    939. D(C   2,C  16,C   4,C   3)     32.2849         0.010000   
    940. D(C  17,C  16,C  15,C   1)    -65.8167         0.054103   
    941. D(C   3,C  16,C   4,C  15)      0.0000         0.010000   
    942. D(C   3,C  16,C   4,C  17)   -122.2849         0.010000   
    943. D(C   3,C  16,C   4,H  10)    115.4302         0.010000   
    944. D(H  22,C  16,C  15,C   2)     96.4710         0.054103   
    945. D(C   3,C  16,C   4,C   5)   -122.2849         0.010000   
    946. D(H  22,C  16,C   4,C  15)   -115.4302         0.010000   
    947. D(H  22,C  16,C   4,C  17)    122.2849         0.010000   
    948. D(C   3,C  16,C  15,C  14)    102.5288         0.054103   
    949. D(H  22,C  16,C   4,H  10)      0.0000         0.010000   
    950. D(H  22,C  16,C   4,C   5)    122.2849         0.010000   
    951. D(H  22,C  16,C   4,C   3)   -115.4302         0.010000   
    952. D(C  17,C  16,C   4,C  15)    122.2849         0.010000   
    953. D(C  17,C  16,C   4,H  10)   -122.2849         0.010000   
    954. D(C  17,C  16,C   4,C   5)      0.0000         0.010000   
    955. D(C  17,C  16,C   4,C   3)    122.2849         0.010000   
    956. D(C   2,C  16,C  15,C   1)     17.7123         0.054103   
    957. D(C  15,C  16,C   4,C  17)   -122.2849         0.010000   
    958. D(C   1,C  17,C  16,C  15)     77.2191         0.057910   
    959. D(C   0,C  17,C  16,C   5)    -17.7531         0.057910   
    960. D(C   0,C  17,C  16,C   1)     18.9903         0.057910   
    961. D(C   0,C  17,C  16,C   4)    -17.7531         0.057910   
    962. D(C   0,C  17,C  16,C   2)     18.9903         0.057910   
    963. D(C   0,C  17,C  16,H  22)    -83.7906         0.057910   
    964. D(C   0,C  17,C  16,C  15)     96.2094         0.057910   
    965. D(H  23,C  17,C  16,C   0)     83.7906         0.057910   
    966. D(H  23,C  17,C  16,C   1)    102.7809         0.057910   
    967. D(H  23,C  17,C  16,C   4)     66.0375         0.057910   
    968. D(H  23,C  17,C  16,C   2)    102.7809         0.057910   
    969. D(H  23,C  17,C  16,H  22)      0.0000         0.057910   
    970. D(H  23,C  17,C  16,C  15)    180.0000         0.057910   
    971. D(C  12,C  17,C  16,C   0)    -96.2094         0.057910   
    972. D(C  12,C  17,C  16,C   5)   -113.9625         0.057910   
    973. D(C  12,C  17,C  16,C   1)    -77.2191         0.057910   
    974. D(C  12,C  17,C  16,C   4)   -113.9625         0.057910   
    975. D(C  12,C  17,C  16,C   2)    -77.2191         0.057910   
    976. D(C  12,C  17,C  16,H  22)    180.0000         0.057910   
    977. D(C  12,C  17,C  16,C  15)      0.0000         0.057910   
    978. D(C   1,C  17,C  12,C   2)    -17.7123         0.054103   
    979. D(C   1,C  17,C  12,H  18)     96.4710         0.054103   
    980. D(C   1,C  17,C  12,C  13)    -83.5290         0.054103   
    981. D(C   0,C  17,C  12,C   5)      0.0000         0.054103   
    982. D(C   0,C  17,C  12,C   1)    -18.9998         0.054103   
    983. D(C   0,C  17,C  12,H  18)     77.4712         0.054103   
    984. D(C   0,C  17,C  12,C  13)   -102.5288         0.054103   
    985. D(H  23,C  17,C  12,C   5)    -77.4712         0.054103   
    986. D(H  23,C  17,C  12,C   2)   -114.1833         0.054103   
    987. D(H  23,C  17,C  12,C   0)    -77.4712         0.054103   
    988. D(H  23,C  17,C  12,C   1)    -96.4710         0.054103   
    989. D(H  23,C  17,C  12,C  13)    180.0000         0.054103   
    990. D(C  16,C  17,C  12,C   5)    102.5288         0.054103   
    991. D(C  16,C  17,C  12,C   2)     65.8167         0.054103   
    992. D(C  16,C  17,C  12,C   1)     83.5290         0.054103   
    993. D(C  16,C  17,C  12,H  18)    180.0000         0.054103   
    994. D(C  16,C  17,C  12,C  13)      0.0000         0.054103   
    995. D(C   1,C  17,C   5,C   0)    -32.2849         0.010000   
    996. D(C   0,C  17,C   5,C  12)      0.0000         0.010000   
    997. D(C   0,C  17,C   5,C  16)    122.2849         0.010000   
    998. D(C   0,C  17,C   5,H  11)   -115.4302         0.010000   
    999. D(C   0,C  17,C   5,C   4)    122.2849         0.010000   
   1000. D(H  23,C  17,C   5,C  12)    115.4302         0.010000   
   1001. D(H  23,C  17,C   5,C  16)   -122.2849         0.010000   
   1002. D(H  23,C  17,C   5,C   4)   -122.2849         0.010000   
   1003. D(H  23,C  17,C   5,C   0)    115.4302         0.010000   
   1004. D(C  16,C  17,C   5,C  12)   -122.2849         0.010000   
   1005. D(C  16,C  17,C   5,C   4)      0.0000         0.010000   
   1006. D(C  16,C  17,C   5,C   0)   -122.2849         0.010000   
   1007. D(C  12,C  17,C   5,C  16)    122.2849         0.010000   
   1008. D(C  12,C  17,C   5,C   4)    122.2849         0.010000   
   1009. D(C  12,C  17,C   5,C   0)     -0.0000         0.010000   
   1010. D(C   0,C  17,C   4,C  15)    121.2713         0.010000   
   1011. D(C   0,C  17,C   4,C  16)    148.6005         0.010000   
   1012. D(C   0,C  17,C   4,H  10)   -145.4928         0.010000   
   1013. D(C   0,C  17,C   4,C   5)    -31.3995         0.010000   
   1014. D(C   0,C  17,C   4,C   3)     95.2472         0.010000   
   1015. D(H  23,C  17,C   4,C  16)   -126.6467         0.010000   
   1016. D(H  23,C  17,C   4,H  10)    -60.7400         0.010000   
   1017. D(H  23,C  17,C   4,C   5)     53.3533         0.010000   
   1018. D(C  16,C  17,C   4,C  15)    -27.3292         0.010000   
   1019. D(C  16,C  17,C   4,H  10)     65.9067         0.010000   
   1020. D(C  16,C  17,C   4,C   5)    180.0000         0.010000   
   1021. D(C  12,C  17,C   4,C  15)     86.7641         0.010000   
   1022. D(C  12,C  17,C   4,C  16)    114.0933         0.010000   
   1023. D(C  12,C  17,C   4,H  10)   -180.0000         0.010000   
   1024. D(C  12,C  17,C   4,C   5)    -65.9067         0.010000   
   1025. D(C  12,C  17,C   4,C   3)     60.7400         0.010000   
   1026. D(C   0,C  17,C   3,C  16)    180.0000         0.010000   
   1027. D(C   0,C  17,C   3,H   9)    180.0000         0.010000   
   1028. D(C   0,C  17,C   3,C   2)     65.8495         0.010000   
   1029. D(H  23,C  17,C   3,C  14)   -180.0000         0.010000   
   1030. D(H  23,C  17,C   3,C  15)   -151.7418         0.010000   
   1031. D(H  23,C  17,C   3,H   9)   -119.1293         0.010000   
   1032. D(H  23,C  17,C   3,C   4)      0.0000         0.010000   
   1033. D(H  23,C  17,C   3,C   2)    126.7202         0.010000   
   1034. D(C  16,C  17,C   3,C  14)    -60.8707         0.010000   
   1035. D(C  16,C  17,C   3,C  15)    -32.6125         0.010000   
   1036. D(C  16,C  17,C   3,H   9)      0.0000         0.010000   
   1037. D(C  16,C  17,C   3,C   4)    119.1293         0.010000   
   1038. D(C  16,C  17,C   3,C   2)   -114.1505         0.010000   
   1039. D(C  12,C  17,C   3,C  14)     53.2798         0.010000   
   1040. D(H  23,C  17,C   3,C  16)   -119.1293         0.010000   
   1041. D(C  12,C  17,C   3,C  15)     81.5380         0.010000   
   1042. D(C  12,C  17,C   3,C  16)    114.1505         0.010000   
   1043. D(C  12,C  17,C   3,H   9)    114.1505         0.010000   
   1044. D(C   0,C  17,C   3,C   4)    -60.8707         0.010000   
   1045. D(C  12,C  17,C   3,C   4)   -126.7202         0.010000   
   1046. D(C  12,C  17,C   3,C   2)      0.0000         0.010000   
   1047. D(C   0,C  17,C   2,C   3)    -90.0626         0.010000   
   1048. D(C   0,C  17,C   2,C   1)     32.3114         0.010000   
   1049. D(H  23,C  17,C   2,C  12)    122.2846         0.010000   
   1050. D(H  23,C  17,C   2,C  13)    150.0733         0.010000   
   1051. D(H  23,C  17,C   2,C  14)   -180.0000         0.010000   
   1052. D(C  16,C  17,C   4,C   3)    -53.3532         0.010000   
   1053. D(H  23,C  17,C   2,C  16)   -115.3413         0.010000   
   1054. D(H  23,C  17,C   2,C  15)   -147.6527         0.010000   
   1055. D(H  23,C  17,C   2,H   8)    180.0000         0.010000   
   1056. D(H  23,C  17,C   4,C   3)   -180.0000         0.010000   
   1057. D(H  23,C  17,C   2,C   3)    -57.7154         0.010000   
   1058. D(H  23,C  17,C   2,C   1)     64.6587         0.010000   
   1059. D(C  16,C  17,C   2,C  12)   -122.3741         0.010000   
   1060. D(H  23,C  17,C   4,C  15)   -153.9759         0.010000   
   1061. D(C  16,C  17,C   2,C  13)    -94.5854         0.010000   
   1062. D(C  16,C  17,C   2,C  14)    -64.6587         0.010000   
   1063. D(C  16,C  17,C   2,C  15)    -32.3114         0.010000   
   1064. D(C  16,C  17,C   2,H   8)    -64.6587         0.010000   
   1065. D(C  16,C  17,C   2,C   3)     57.6259         0.010000   
   1066. D(C  16,C  17,C   2,C   1)    180.0000         0.010000   
   1067. D(C  12,C  17,C   2,C  13)     27.7886         0.010000   
   1068. D(C  12,C  17,C   5,H  11)   -115.4302         0.010000   
   1069. D(C  12,C  17,C   2,C  14)     57.7154         0.010000   
   1070. D(C  12,C  17,C   2,C  16)    122.3741         0.010000   
   1071. D(C  12,C  17,C   2,C  15)     90.0626         0.010000   
   1072. D(C  16,C  17,C   5,H  11)    122.2849         0.010000   
   1073. D(C  12,C  17,C   2,H   8)     57.7154         0.010000   
   1074. D(C  12,C  17,C   2,C   3)    180.0000         0.010000   
   1075. D(C  12,C  17,C   2,C   1)    -57.6259         0.010000   
   1076. D(H  23,C  17,C   5,H  11)     -0.0000         0.010000   
   1077. D(C   0,C  17,C   1,H   7)    118.7474         0.010000   
   1078. D(C   0,C  17,C   1,C   2)   -120.6263         0.010000   
   1079. D(H  23,C  17,C   1,C  15)   -150.0078         0.010000   
   1080. D(H  23,C  17,C   1,C  14)   -180.0000         0.010000   
   1081. D(H  23,C  17,C   1,C  16)   -120.6263         0.010000   
   1082. D(H  23,C  17,C   1,C  13)    149.3737         0.010000   
   1083. D(H  23,C  17,C   1,C  12)    118.7474         0.010000   
   1084. D(C   1,C  17,C   5,C   4)     90.0000         0.010000   
   1085. D(H  23,C  17,C   1,H   7)    118.7474         0.010000   
   1086. D(H  23,C  17,C   1,C   2)   -120.6263         0.010000   
   1087. D(H  23,C  17,C   1,C   0)      0.0000         0.010000   
   1088. D(C  16,C  17,C  12,C   0)    102.5288         0.054103   
   1089. D(C  16,C  17,C   1,C  15)    -29.3815         0.010000   
   1090. D(C  16,C  17,C   1,C  14)    -59.3737         0.010000   
   1091. D(C  16,C  17,C   1,C  13)    -90.0000         0.010000   
   1092. D(H  23,C  17,C  12,H  18)      0.0000         0.054103   
   1093. D(C  16,C  17,C   1,C  12)   -120.6263         0.010000   
   1094. D(C  16,C  17,C   1,H   7)   -120.6263         0.010000   
   1095. D(C  16,C  17,C   1,C   2)      0.0000         0.010000   
   1096. D(C  16,C  17,C   1,C   0)    120.6263         0.010000   
   1097. D(C  12,C  17,C   1,C  15)     91.2449         0.010000   
   1098. D(C  12,C  17,C   1,C  14)     61.2527         0.010000   
   1099. D(C  12,C  17,C   1,C  16)    120.6263         0.010000   
   1100. D(C   0,C  17,C  12,C   2)    -36.7121         0.054103   
   1101. D(C  12,C  17,C   1,C  13)     30.6263         0.010000   
   1102. D(C  12,C  17,C   1,H   7)      0.0000         0.010000   
   1103. D(C  12,C  17,C   1,C   2)    120.6263         0.010000   
   1104. D(C   1,C  17,C  12,C   0)     18.9998         0.054103   
   1105. D(C  12,C  17,C   1,C   0)   -118.7473         0.010000   
   1106. D(C   1,C  17,C   0,C  13)    -29.9762         0.010000   
   1107. D(C   1,C  17,C   0,C  16)     61.2028         0.010000   
   1108. D(C  12,C  17,C  16,C   3)    -96.2094         0.057910   
   1109. D(C   1,C  17,C   0,C  12)    -59.3740         0.010000   
   1110. D(C   1,C  17,C   0,H   6)   -118.7972         0.010000   
   1111. D(C   1,C  17,C   0,C   5)    120.6260         0.010000   
   1112. D(H  23,C  17,C   0,C  13)    150.0238         0.010000   
   1113. D(H  23,C  17,C   0,C  16)   -118.7971         0.010000   
   1114. D(H  23,C  17,C   0,C  12)    120.6260         0.010000   
   1115. D(H  23,C  17,C   0,H   6)     61.2029         0.010000   
   1116. D(H  23,C  17,C  16,C   3)     83.7906         0.057910   
   1117. D(H  23,C  17,C   0,C   5)    -59.3740         0.010000   
   1118. D(H  23,C  17,C   0,C   1)   -180.0000         0.010000   
   1119. D(C  16,C  17,C   0,C  13)    -91.1791         0.010000   
   1120. D(H  23,C  17,C  16,C   5)     66.0375         0.057910   
   1121. D(C  16,C  17,C   0,C  12)   -120.5769         0.010000   
   1122. D(C  16,C  17,C   0,H   6)    180.0000         0.010000   
   1123. D(C  16,C  17,C   0,C   5)     59.4231         0.010000   
   1124. D(C   0,C  17,C  16,C   3)      0.0000         0.057910   
   1125. D(C  16,C  17,C   0,C   1)    -61.2028         0.010000   
   1126. D(C  12,C  17,C   0,C  13)     29.3978         0.010000   
   1127. D(C  12,C  17,C   0,C  16)    120.5769         0.010000   
   1128. D(C  12,C  17,C   0,H   6)    -59.4231         0.010000   
   1129. D(C  12,C  17,C   0,C   5)    180.0000         0.010000   
   1130. D(C  12,C  17,C   0,C   1)     59.3740         0.010000   
    -----------------------------------------------------------------

Number of atoms                         .... 24
Number of degrees of freedom            .... 1130


         *************************************************************
         *                GEOMETRY OPTIMIZATION CYCLE   1            *
         *************************************************************
---------------------------------
CARTESIAN COORDINATES (ANGSTROEM)
---------------------------------
  C     -0.800000    1.395248   -1.800000
  C      0.408320    0.697624   -1.800000
  C      0.408320   -0.697624   -1.800000
  C     -0.800000   -1.395248   -1.800000
  C     -2.008320   -0.697624   -1.800000
  C     -2.008320    0.697624   -1.800000
  H     -0.800000    2.482360   -1.800000
  H      1.349787    1.241180   -1.800000
  H      1.349787   -1.241180   -1.800000
  H     -0.800000   -2.482360   -1.800000
  H     -2.949787   -1.241180   -1.800000
  H     -2.949787    1.241180   -1.800000
  C      0.800000    1.395248    1.800000
  C      2.008320    0.697624    1.800000
  C      2.008320   -0.697624    1.800000
  C      0.800000   -1.395248    1.800000
  C     -0.408320   -0.697624    1.800000
  C     -0.408320    0.697624    1.800000
  H      0.800000    2.482360    1.800000
  H      2.949787    1.241180    1.800000
  H      2.949787   -1.241180    1.800000
  H      0.800000   -2.482360    1.800000
  H     -1.349787   -1.241180    1.800000
  H     -1.349787    1.241180    1.800000

----------------------------
CARTESIAN COORDINATES (A.U.)
----------------------------
  NO LB      ZA    FRAG     MASS         X           Y           Z
   0 C     6.0000    0    12.011   -1.511781    2.636637   -3.401507
   1 C     6.0000    0    12.011    0.771613    1.318318   -3.401507
   2 C     6.0000    0    12.011    0.771613   -1.318318   -3.401507
   3 C     6.0000    0    12.011   -1.511781   -2.636637   -3.401507
   4 C     6.0000    0    12.011   -3.795175   -1.318318   -3.401507
   5 C     6.0000    0    12.011   -3.795175    1.318318   -3.401507
   6 H     1.0000    0     1.008   -1.511781    4.690981   -3.401507
   7 H     1.0000    0     1.008    2.550728    2.345490   -3.401507
   8 H     1.0000    0     1.008    2.550728   -2.345490   -3.401507
   9 H     1.0000    0     1.008   -1.511781   -4.690981   -3.401507
  10 H     1.0000    0     1.008   -5.574290   -2.345490   -3.401507
  11 H     1.0000    0     1.008   -5.574290    2.345490   -3.401507
  12 C     6.0000    0    12.011    1.511781    2.636637    3.401507
  13 C     6.0000    0    12.011    3.795175    1.318318    3.401507
  14 C     6.0000    0    12.011    3.795175   -1.318318    3.401507
  15 C     6.0000    0    12.011    1.511781   -2.636637    3.401507
  16 C     6.0000    0    12.011   -0.771613   -1.318318    3.401507
  17 C     6.0000    0    12.011   -0.771613    1.318318    3.401507
  18 H     1.0000    0     1.008    1.511781    4.690981    3.401507
  19 H     1.0000    0     1.008    5.574290    2.345490    3.401507
  20 H     1.0000    0     1.008    5.574290   -2.345490    3.401507
  21 H     1.0000    0     1.008    1.511781   -4.690981    3.401507
  22 H     1.0000    0     1.008   -2.550728   -2.345490    3.401507
  23 H     1.0000    0     1.008   -2.550728    2.345490    3.401507

--------------------------------
INTERNAL COORDINATES (ANGSTROEM)
--------------------------------
 C      0   0   0     0.000000000000     0.00000000     0.00000000
 C      1   0   0     1.395247815901     0.00000000     0.00000000
 C      2   1   0     1.395248000000   120.00000436     0.00000000
 C      3   2   1     1.395247815901   120.00000436     0.00000000
 C      4   3   2     1.395247815901   119.99999127     0.00000000
 C      1   2   3     1.395247815901   119.99999127     0.00000000
 H      1   2   3     1.087112000000   120.00000436   180.00000085
 H      2   1   3     1.087112338825   120.00000595   180.00000000
 H      3   2   1     1.087112338825   119.99998969   180.00000000
 H      4   3   2     1.087112000000   120.00000436   180.00000085
 H      5   4   3     1.087112338825   120.00000595   180.00000000
 H      6   1   2     1.087112338825   120.00000595   180.00000000
 C      8   2   1     3.644996940190    83.71400588    83.52903596
 C     13   8   2     1.395247815901    81.27108476   119.47253033
 C     14  13   8     1.395248000000   120.00000436   267.74964476
 C     15  14  13     1.395247815901   120.00000436     0.00000000
 C     16  15  14     1.395247815901   119.99999127     0.00000000
 C     13   8   2     1.395247815901    96.28599246     0.00000000
 H     13   8   2     1.087112000000    92.42251968   239.46036490
 H     14  13   8     1.087112338825   120.00000595    87.74964476
 H     15  14  13     1.087112338825   119.99998969   180.00000000
 H     16  15  14     1.087112000000   120.00000436   180.00000000
 H     17  16  15     1.087112338825   120.00000595   180.00000000
 H     18  13   8     1.087112338825   120.00000595   263.52903436

---------------------------
INTERNAL COORDINATES (A.U.)
---------------------------
 C      0   0   0     0.000000000000     0.00000000     0.00000000
 C      1   0   0     2.636636261004     0.00000000     0.00000000
 C      2   1   0     2.636636608901   120.00000436     0.00000000
 C      3   2   1     2.636636261004   120.00000436     0.00000000
 C      4   3   2     2.636636261004   119.99999127     0.00000000
 C      1   2   3     2.636636261004   119.99999127     0.00000000
 H      1   2   3     2.054343956899   120.00000436   180.00000085
 H      2   1   3     2.054344597185   120.00000595   180.00000000
 H      3   2   1     2.054344597185   119.99998969   180.00000000
 H      4   3   2     2.054343956899   120.00000436   180.00000085
 H      5   4   3     2.054344597185   120.00000595   180.00000000
 H      6   1   2     2.054344597185   120.00000595   180.00000000
 C      8   2   1     6.888045975940    83.71400588    83.52903596
 C     13   8   2     2.636636261004    81.27108476   119.47253033
 C     14  13   8     2.636636608901   120.00000436   267.74964476
 C     15  14  13     2.636636261004   120.00000436     0.00000000
 C     16  15  14     2.636636261004   119.99999127     0.00000000
 C     13   8   2     2.636636261004    96.28599246     0.00000000
 H     13   8   2     2.054343956899    92.42251968   239.46036490
 H     14  13   8     2.054344597185   120.00000595    87.74964476
 H     15  14  13     2.054344597185   119.99998969   180.00000000
 H     16  15  14     2.054343956899   120.00000436   180.00000000
 H     17  16  15     2.054344597185   120.00000595   180.00000000
 H     18  13   8     2.054344597185   120.00000595   263.52903436

---------------------
BASIS SET INFORMATION
---------------------
There are 2 groups of distinct atoms

 Group   1 Type C   : 11s6p1d contracted to 5s3p1d pattern {62111/411/1}
 Group   2 Type H   : 5s contracted to 3s pattern {311}

Atom   0C    basis set group =>   1
Atom   1C    basis set group =>   1
Atom   2C    basis set group =>   1
Atom   3C    basis set group =>   1
Atom   4C    basis set group =>   1
Atom   5C    basis set group =>   1
Atom   6H    basis set group =>   2
Atom   7H    basis set group =>   2
Atom   8H    basis set group =>   2
Atom   9H    basis set group =>   2
Atom  10H    basis set group =>   2
Atom  11H    basis set group =>   2
Atom  12C    basis set group =>   1
Atom  13C    basis set group =>   1
Atom  14C    basis set group =>   1
Atom  15C    basis set group =>   1
Atom  16C    basis set group =>   1
Atom  17C    basis set group =>   1
Atom  18H    basis set group =>   2
Atom  19H    basis set group =>   2
Atom  20H    basis set group =>   2
Atom  21H    basis set group =>   2
Atom  22H    basis set group =>   2
Atom  23H    basis set group =>   2
---------------------------------
AUXILIARY/J BASIS SET INFORMATION
---------------------------------
There are 2 groups of distinct atoms

 Group   1 Type C   : 8s3p3d contracted to 6s3p3d pattern {311111/111/111}
 Group   2 Type H   : 5s2p contracted to 3s1p pattern {311/2}

Atom   0C    basis set group =>   1
Atom   1C    basis set group =>   1
Atom   2C    basis set group =>   1
Atom   3C    basis set group =>   1
Atom   4C    basis set group =>   1
Atom   5C    basis set group =>   1
Atom   6H    basis set group =>   2
Atom   7H    basis set group =>   2
Atom   8H    basis set group =>   2
Atom   9H    basis set group =>   2
Atom  10H    basis set group =>   2
Atom  11H    basis set group =>   2
Atom  12C    basis set group =>   1
Atom  13C    basis set group =>   1
Atom  14C    basis set group =>   1
Atom  15C    basis set group =>   1
Atom  16C    basis set group =>   1
Atom  17C    basis set group =>   1
Atom  18H    basis set group =>   2
Atom  19H    basis set group =>   2
Atom  20H    basis set group =>   2
Atom  21H    basis set group =>   2
Atom  22H    basis set group =>   2
Atom  23H    basis set group =>   2


           ************************************************************
           *        Program running with 4 parallel MPI-processes     *
           *              working on a common directory               *
           ************************************************************
------------------------------------------------------------------------------
                             ORCA STARTUP CALCULATIONS
                           -- RI-GTO INTEGRALS CHOSEN --
------------------------------------------------------------------------------
------------------------------------------------------------------------------
                   ___                                                        
                  /   \      - P O W E R E D   B Y -                         
                 /     \                                                     
                 |  |  |   _    _      __       _____    __    __             
                 |  |  |  | |  | |    /  \     |  _  \  |  |  /  |          
                  \  \/   | |  | |   /    \    | | | |  |  | /  /          
                 / \  \   | |__| |  /  /\  \   | |_| |  |  |/  /          
                |  |  |   |  __  | /  /__\  \  |    /   |      \           
                |  |  |   | |  | | |   __   |  |    \   |  |\   \          
                \     /   | |  | | |  |  |  |  | |\  \  |  | \   \       
                 \___/    |_|  |_| |__|  |__|  |_| \__\ |__|  \__/        
                                                                              
                      - O R C A' S   B I G   F R I E N D -                    
                                      &                                       
                       - I N T E G R A L  F E E D E R -                       
                                                                              
 v1 FN, 2020, v2 2021, v3 2022-2024                                           
------------------------------------------------------------------------------


----------------------
SHARK INTEGRAL PACKAGE
----------------------

Number of atoms                             ...     24
Number of basis functions                   ...    264
Number of shells                            ...    144
Maximum angular momentum                    ...      2
Integral batch strategy                     ... SHARK/LIBINT Hybrid
RI-J (if used) integral strategy            ... SPLIT-RIJ (Revised 2003 algorithm where possible)
Printlevel                                  ...      1
Contraction scheme used                     ... SEGMENTED contraction
Prescreening option                         ... SCHWARTZ
   Thresh                                   ... 2.500e-11
   Tcut                                     ... 2.500e-12
   Tpresel                                  ... 2.500e-12 
Coulomb Range Separation                    ... NOT USED
Exchange Range Separation                   ... NOT USED
Multipole approximations                    ... NOT USED
Finite Nucleus Model                        ... NOT USED
CABS basis                                  ... NOT available
Auxiliary Coulomb fitting basis             ... AVAILABLE
   # of basis functions in Aux-J            ...    432
   # of shells in Aux-J                     ...    192
   Maximum angular momentum in Aux-J        ...      2
Auxiliary J/K fitting basis                 ... NOT available
Auxiliary Correlation fitting basis         ... NOT available
Auxiliary 'external' fitting basis          ... NOT available

Checking pre-screening integrals            ... done (  0.0 sec) Dimension = 144
   => SHARK Basis and OBASIS are compatible. Storing Pre-screening
Shell pair information
Shell pair cut-off parameter TPreSel        ...   2.5e-12
Total number of shell pairs                 ...     10440
Shell pairs after pre-screening             ...      9144
Total number of primitive shell pairs       ...     38526
Primitive shell pairs kept                  ...     22686
          la=0 lb=0:   3874 shell pairs
          la=1 lb=0:   3200 shell pairs
          la=1 lb=1:    652 shell pairs
          la=2 lb=0:    936 shell pairs
          la=2 lb=1:    412 shell pairs
          la=2 lb=2:     70 shell pairs

Checking whether 4 symmetric matrices of dimension 264 fit in memory
:Max Core in MB      =   2500.00
 MB in use           =     12.67
 MB left             =   2487.33
 MB needed           =      1.07
 Data fit in memory  = YES
Calculating RI/J V-Matrix + Cholesky decomp.... done (  0.0 sec)
Calculating Nuclear repulsion               ... done (  0.0 sec) ENN=    619.147989521342 Eh

Diagonalization of the overlap matrix:
Smallest eigenvalue                        ... 1.020e-05
Time for diagonalization                   ...    0.005 sec
Threshold for overlap eigenvalues          ... 1.000e-07
Number of eigenvalues below threshold      ... 0
Time for construction of square roots      ...    0.002 sec
Total time needed                          ...    0.008 sec

-------------------
DFT GRID GENERATION
-------------------

General Integration Accuracy     IntAcc      ... 4.388
Radial Grid Type                 RadialGrid  ... OptM3 with GC (2021)
Angular Grid (max. ang.)         AngularGrid ... 4 (Lebedev-302)
Angular grid pruning method      GridPruning ... 4 (adaptive)
Weight generation scheme         WeightScheme... mBecke (2022)
Basis function cutoff            BFCut       ... 1.0000e-11
Integration weight cutoff        WCut        ... 1.0000e-14
Partially contracted basis set               ... off
Rotationally invariant grid construction     ... off
Angular grids for H and He will be reduced by one unit

Total number of grid points                  ...   110232
Total number of batches                      ...     1736
Average number of points per batch           ...       63
Average number of grid points per atom       ...     4593
Grids setup in   0.9 sec
Initializing property integral containers    ... done (  0.0 sec)

SHARK setup successfully completed in   1.0 seconds

Maximum memory used throughout the entire STARTUP-calculation: 34.2 MB


           ************************************************************
           *        Program running with 4 parallel MPI-processes     *
           *              working on a common directory               *
           ************************************************************
-------------------------------------------------------------------------------
                                 ORCA GUESS
                   Start orbitals & Density for SCF / CASSCF
-------------------------------------------------------------------------------

------------
SCF SETTINGS
------------
Hamiltonian:
 Density Functional     Method          .... DFT(GTOs)
 Exchange Functional    Exchange        .... B973C
 Correlation Functional Correlation     .... B973C
 Gradients option       PostSCFGGA      .... off
 RI-approximation to the Coulomb term is turned on
   Number of AuxJ basis functions       .... 432


General Settings:
 Integral files         IntName         .... dimero_PD
 Hartree-Fock type      HFTyp           .... RHF
 Total Charge           Charge          ....    0
 Multiplicity           Mult            ....    1
 Number of Electrons    NEL             ....   84
 Basis Dimension        Dim             ....  264
 Nuclear Repulsion      ENuc            ....    619.1479895213 Eh

Convergence Acceleration:
 AO-DIIS                CNVDIIS         .... on
   Start iteration      DIISMaxIt       ....    12
   Startup error        DIISStart       ....  0.200000
   # of expansion vecs  DIISMaxEq       ....     5
   Bias factor          DIISBfac        ....   1.050
   Max. coefficient     DIISMaxC        ....  10.000
 MO-DIIS                CNVKDIIS        .... off
 Trust-Rad. Augm. Hess. CNVTRAH         .... auto
   Auto Start mean grad. ratio tolernc. ....  1.125000
   Auto Start start iteration           ....    50
   Auto Start num. interpolation iter.  ....    10
   Max. Number of Micro iterations      ....    24
   Max. Number of Macro iterations      .... Maxiter - #DIIS iter
   Number of Davidson start vectors     ....     2
   Converg. threshold    (grad. norm)   ....   1.000e-05
   Grad. Scal. Fac. for Micro threshold ....   0.100
   Minimum threshold for Micro iter.    ....   1.000e-02
   NR start threshold (gradient norm)   ....   1.000e-04
   Initial trust radius                 ....   0.400
   Minimum AH scaling param. (alpha)    ....   1.000
   Maximum AH scaling param. (alpha)    .... 1000.000
   Quad. conv. algorithm                .... NR
   White noise on init. David. guess    .... on
   Maximum white noise                  ....   0.010
   Pseudo random numbers                .... off
   Inactive MOs                         .... canonical
   Orbital update algorithm             .... Taylor
   Preconditioner                       .... Diag
   Full preconditioner red. dimension   ....   250
 SOSCF                 CNVSOSCF           .... on
   Start iteration     SOSCFMaxIt         ....   150
   Startup grad/error  SOSCFStart         ....  0.003300
   Hessian update      SOSCFHessUp        .... L-BFGS
   Autom. constraints  SOSCFAutoConstrain .... off
 Level Shifting         CNVShift        .... on
   Level shift para.    LevelShift      ....    0.2500
   Turn off err/grad.   ShiftErr        ....    0.0010
 Zerner damping         CNVZerner       .... off
 Static damping         CNVDamp         .... on
   Fraction old density DampFac         ....    0.7000
   Max. Damping (<1)    DampMax         ....    0.9800
   Min. Damping (>=0)   DampMin         ....    0.0000
   Turn off err/grad.   DampErr         ....    0.1000

SCF Procedure:
 Maximum # iterations   MaxIter         ....   125
 SCF integral mode      SCFMode         .... Direct
   Integral package                     .... SHARK and LIBINT hybrid scheme
 Reset frequency        DirectResetFreq ....    20
 Integral Threshold     Thresh          ....  2.500e-11 Eh
 Primitive CutOff       TCut            ....  2.500e-12 Eh

Convergence Tolerance:
 Convergence Check Mode ConvCheckMode   .... Total+1el-Energy
 Convergence forced     ConvForced      .... 0
 Energy Change          TolE            ....  1.000e-08 Eh
 1-El. energy change                    ....  1.000e-05 Eh
 Orbital Gradient       TolG            ....  1.000e-05
 Orbital Rotation angle TolX            ....  1.000e-05
 DIIS Error             TolErr          ....  5.000e-07

--------------------------------
INITIAL GUESS: MINIMAL BASIS EHT
--------------------------------
The minimal basis has 72 functions
EHT matrix was diagonalized
Basis set overlap was calculated now projecting the orbitals
Using GuessMode=FMatrix for the initial guess
C*T matrix was formed
Effective Fockian was calculated
Effective Fockian was diagonalized
Initial density was built
                      ------------------
                      INITIAL GUESS DONE
                      ------------------
             **** ENERGY FILE WAS UPDATED (dimero_PD.en.tmp) ****
Finished Guess after   0.2 sec
Maximum memory used throughout the entire GUESS-calculation: 16.9 MB


           ************************************************************
           *        Program running with 4 parallel MPI-processes     *
           *              working on a common directory               *
           ************************************************************

-------------------------------------------------------------------------------------------
                                      ORCA LEAN-SCF
                              memory conserving SCF solver
-------------------------------------------------------------------------------------------

----------------------------------------D-I-I-S--------------------------------------------
Iteration    Energy (Eh)           Delta-E    RMSDP     MaxDP     DIISErr   Damp  Time(sec)
-------------------------------------------------------------------------------------------
               ***  Starting incremental Fock matrix formation  ***
    1    -463.0190501145608550     0.00e+00  6.13e-03  5.41e-02  4.54e-01  0.700   0.9
    2    -463.3441635204454769    -3.25e-01  4.88e-03  3.90e-02  3.20e-01  0.700   0.8
    3    -463.5775117684382849    -2.33e-01  3.86e-03  2.58e-02  2.24e-01  0.700   0.8
                               ***Turning on AO-DIIS***
    4    -463.7417500381467335    -1.64e-01  3.02e-03  1.56e-02  1.56e-01  0.700   0.8
    5    -463.8568786077499908    -1.15e-01  2.09e-03  9.67e-03  1.09e-01  0.700   0.8
    6    -463.9377440071792762    -8.09e-02  1.47e-03  6.62e-03  7.63e-02  0.700   0.8
    7    -463.9944916982937002    -5.67e-02  3.44e-03  1.53e-02  5.35e-02  0.000   0.8
                              *** Initializing SOSCF ***
---------------------------------------S-O-S-C-F--------------------------------------
Iteration    Energy (Eh)           Delta-E    RMSDP     MaxDP     MaxGrad    Time(sec)
--------------------------------------------------------------------------------------
    8    -464.1270881089750446    -1.33e-01  7.90e-04  1.21e-02  1.87e-03     0.8
               *** Restarting incremental Fock matrix formation ***
    9    -464.1271123970935832    -2.43e-05  4.80e-04  7.74e-03  7.54e-04     0.9
   10    -464.1270886765615842     2.37e-05  3.64e-04  5.94e-03  1.01e-03     0.7
   11    -464.1271352058105322    -4.65e-05  2.84e-05  1.75e-04  1.08e-04     0.8
   12    -464.1271339961207332     1.21e-06  1.96e-05  1.29e-04  2.61e-04     0.7
   13    -464.1271354457775260    -1.45e-06  4.06e-06  4.68e-05  4.81e-06     0.6
   14    -464.1271354457727512     4.77e-12  1.73e-06  2.09e-05  8.86e-06     0.6
                 **** Energy Check signals convergence ****

               *****************************************************
               *                     SUCCESS                       *
               *           SCF CONVERGED AFTER  14 CYCLES          *
               *****************************************************

             **** ENERGY FILE WAS UPDATED (dimero_PD.en.tmp) ****

----------------
TOTAL SCF ENERGY
----------------

Total Energy       :       -464.12713544293626 Eh          -12629.54143 eV

Components:
Nuclear Repulsion  :        619.14798952134163 Eh           16847.87332 eV
Electronic Energy  :      -1083.27512496427789 Eh          -29477.41475 eV
One Electron Energy:      -1853.54427731483702 Eh          -50437.50398 eV
Two Electron Energy:        770.26915235055912 Eh           20960.08923 eV

Virial components:
Potential Energy   :       -926.25193109058227 Eh          -25204.59642 eV
Kinetic Energy     :        462.12479564764607 Eh           12575.05499 eV
Virial Ratio       :          2.00433289841651

DFT components:
N(Alpha)           :       42.000049827996 electrons
N(Beta)            :       42.000049827996 electrons
N(Total)           :       84.000099655993 electrons
E(XC)              :      -69.129268471020 Eh       

---------------
SCF CONVERGENCE
---------------

  Last Energy change         ...   -4.7748e-12  Tolerance :   1.0000e-08
  Last MAX-Density change    ...    2.0931e-05  Tolerance :   1.0000e-07
  Last RMS-Density change    ...    1.7306e-06  Tolerance :   5.0000e-09
  Last DIIS Error            ...    1.8723e-03  Tolerance :   5.0000e-07
  Last Orbital Gradient      ...    8.8571e-06  Tolerance :   1.0000e-05
  Last Orbital Rotation      ...    1.2340e-05  Tolerance :   1.0000e-05


----------------
ORBITAL ENERGIES
----------------

  NO   OCC          E(Eh)            E(eV) 
   0   2.0000      -9.892078      -269.1771 
   1   2.0000      -9.892073      -269.1770 
   2   2.0000      -9.891778      -269.1690 
   3   2.0000      -9.891774      -269.1689 
   4   2.0000      -9.891469      -269.1605 
   5   2.0000      -9.891460      -269.1603 
   6   2.0000      -9.891381      -269.1582 
   7   2.0000      -9.891374      -269.1580 
   8   2.0000      -9.890852      -269.1438 
   9   2.0000      -9.890847      -269.1436 
  10   2.0000      -9.890497      -269.1341 
  11   2.0000      -9.890494      -269.1340 
  12   2.0000      -0.777376       -21.1535 
  13   2.0000      -0.775382       -21.0992 
  14   2.0000      -0.675790       -18.3892 
  15   2.0000      -0.674815       -18.3626 
  16   2.0000      -0.674517       -18.3545 
  17   2.0000      -0.674058       -18.3421 
  18   2.0000      -0.541851       -14.7445 
  19   2.0000      -0.541758       -14.7420 
  20   2.0000      -0.541554       -14.7364 
  21   2.0000      -0.541448       -14.7336 
  22   2.0000      -0.469657       -12.7800 
  23   2.0000      -0.468783       -12.7562 
  24   2.0000      -0.410379       -11.1670 
  25   2.0000      -0.410335       -11.1658 
  26   2.0000      -0.394571       -10.7368 
  27   2.0000      -0.394412       -10.7325 
  28   2.0000      -0.373371       -10.1599 
  29   2.0000      -0.372636       -10.1399 
  30   2.0000      -0.372462       -10.1352 
  31   2.0000      -0.372391       -10.1333 
  32   2.0000      -0.330800        -9.0015 
  33   2.0000      -0.313385        -8.5276 
  34   2.0000      -0.300571        -8.1789 
  35   2.0000      -0.300275        -8.1709 
  36   2.0000      -0.300186        -8.1685 
  37   2.0000      -0.300178        -8.1683 
  38   2.0000      -0.228904        -6.2288 
  39   2.0000      -0.222120        -6.0442 
  40   2.0000      -0.219810        -5.9813 
  41   2.0000      -0.214328        -5.8322 
  42   0.0000      -0.032775        -0.8919 
  43   0.0000      -0.032436        -0.8826 
  44   0.0000      -0.029115        -0.7923 
  45   0.0000      -0.028574        -0.7775 
  46   0.0000       0.026617         0.7243 
  47   0.0000       0.045845         1.2475 
  48   0.0000       0.059306         1.6138 
  49   0.0000       0.062995         1.7142 
  50   0.0000       0.080555         2.1920 
  51   0.0000       0.082848         2.2544 
  52   0.0000       0.090928         2.4743 
*Only the first 10 virtual orbitals were printed.

                    ********************************
                    * MULLIKEN POPULATION ANALYSIS *
                    ********************************

-----------------------
MULLIKEN ATOMIC CHARGES
-----------------------
   0 C :   -0.168321
   1 C :   -0.117349
   2 C :   -0.117352
   3 C :   -0.168316
   4 C :   -0.165466
   5 C :   -0.165458
   6 H :    0.149970
   7 H :    0.147424
   8 H :    0.147423
   9 H :    0.149969
  10 H :    0.153738
  11 H :    0.153738
  12 C :   -0.168311
  13 C :   -0.165466
  14 C :   -0.165464
  15 C :   -0.168314
  16 C :   -0.117355
  17 C :   -0.117355
  18 H :    0.149972
  19 H :    0.153740
  20 H :    0.153738
  21 H :    0.149972
  22 H :    0.147421
  23 H :    0.147421
Sum of atomic charges:   -0.0000000

--------------------------------
MULLIKEN REDUCED ORBITAL CHARGES
--------------------------------
  0 C s       :     3.138764  s :     3.138764
      pz      :     0.997800  p :     2.988657
      px      :     0.950951
      py      :     1.039907
      dz2     :     0.003926  d :     0.040900
      dxz     :     0.006465
      dyz     :     0.001925
      dx2y2   :     0.016492
      dxy     :     0.012092

  1 C s       :     3.093141  s :     3.093141
      pz      :     0.979881  p :     2.983374
      px      :     1.016242
      py      :     0.987252
      dz2     :     0.003936  d :     0.040834
      dxz     :     0.003091
      dyz     :     0.005262
      dx2y2   :     0.013174
      dxy     :     0.015371

  2 C s       :     3.093145  s :     3.093145
      pz      :     0.979881  p :     2.983373
      px      :     1.016240
      py      :     0.987252
      dz2     :     0.003936  d :     0.040834
      dxz     :     0.003091
      dyz     :     0.005262
      dx2y2   :     0.013174
      dxy     :     0.015371

  3 C s       :     3.138764  s :     3.138764
      pz      :     0.997800  p :     2.988653
      px      :     0.950951
      py      :     1.039902
      dz2     :     0.003926  d :     0.040900
      dxz     :     0.006465
      dyz     :     0.001925
      dx2y2   :     0.016492
      dxy     :     0.012092

  4 C s       :     3.135444  s :     3.135444
      pz      :     0.997305  p :     2.989110
      px      :     1.019645
      py      :     0.972160
      dz2     :     0.003908  d :     0.040911
      dxz     :     0.003062
      dyz     :     0.005380
      dx2y2   :     0.013189
      dxy     :     0.015373

  5 C s       :     3.135436  s :     3.135436
      pz      :     0.997305  p :     2.989110
      px      :     1.019646
      py      :     0.972158
      dz2     :     0.003908  d :     0.040912
      dxz     :     0.003062
      dyz     :     0.005380
      dx2y2   :     0.013189
      dxy     :     0.015373

  6 H s       :     0.850030  s :     0.850030

  7 H s       :     0.852576  s :     0.852576

  8 H s       :     0.852577  s :     0.852577

  9 H s       :     0.850031  s :     0.850031

 10 H s       :     0.846262  s :     0.846262

 11 H s       :     0.846262  s :     0.846262

 12 C s       :     3.138749  s :     3.138749
      pz      :     0.997800  p :     2.988662
      px      :     0.950951
      py      :     1.039911
      dz2     :     0.003926  d :     0.040900
      dxz     :     0.006465
      dyz     :     0.001925
      dx2y2   :     0.016492
      dxy     :     0.012092

 13 C s       :     3.135439  s :     3.135439
      pz      :     0.997305  p :     2.989116
      px      :     1.019652
      py      :     0.972159
      dz2     :     0.003908  d :     0.040911
      dxz     :     0.003062
      dyz     :     0.005380
      dx2y2   :     0.013189
      dxy     :     0.015373

 14 C s       :     3.135442  s :     3.135442
      pz      :     0.997305  p :     2.989110
      px      :     1.019647
      py      :     0.972158
      dz2     :     0.003908  d :     0.040911
      dxz     :     0.003062
      dyz     :     0.005380
      dx2y2   :     0.013189
      dxy     :     0.015373

 15 C s       :     3.138750  s :     3.138750
      pz      :     0.997800  p :     2.988664
      px      :     0.950951
      py      :     1.039914
      dz2     :     0.003926  d :     0.040900
      dxz     :     0.006465
      dyz     :     0.001925
      dx2y2   :     0.016492
      dxy     :     0.012092

 16 C s       :     3.093155  s :     3.093155
      pz      :     0.979881  p :     2.983365
      px      :     1.016238
      py      :     0.987247
      dz2     :     0.003936  d :     0.040834
      dxz     :     0.003091
      dyz     :     0.005262
      dx2y2   :     0.013174
      dxy     :     0.015371

 17 C s       :     3.093154  s :     3.093154
      pz      :     0.979881  p :     2.983367
      px      :     1.016241
      py      :     0.987245
      dz2     :     0.003936  d :     0.040834
      dxz     :     0.003091
      dyz     :     0.005262
      dx2y2   :     0.013174
      dxy     :     0.015371

 18 H s       :     0.850028  s :     0.850028

 19 H s       :     0.846260  s :     0.846260

 20 H s       :     0.846262  s :     0.846262

 21 H s       :     0.850028  s :     0.850028

 22 H s       :     0.852579  s :     0.852579

 23 H s       :     0.852579  s :     0.852579



                     *******************************
                     * LOEWDIN POPULATION ANALYSIS *
                     *******************************

----------------------
LOEWDIN ATOMIC CHARGES
----------------------
   0 C :   -0.163744
   1 C :   -0.155798
   2 C :   -0.155798
   3 C :   -0.163744
   4 C :   -0.167776
   5 C :   -0.167776
   6 H :    0.162004
   7 H :    0.163509
   8 H :    0.163509
   9 H :    0.162004
  10 H :    0.161805
  11 H :    0.161805
  12 C :   -0.163744
  13 C :   -0.167776
  14 C :   -0.167776
  15 C :   -0.163744
  16 C :   -0.155798
  17 C :   -0.155798
  18 H :    0.162004
  19 H :    0.161805
  20 H :    0.161805
  21 H :    0.162004
  22 H :    0.163509
  23 H :    0.163509

-------------------------------
LOEWDIN REDUCED ORBITAL CHARGES
-------------------------------
  0 C s       :     2.908482  s :     2.908482
      pz      :     0.985767  p :     3.175626
      px      :     1.102677
      py      :     1.087182
      dz2     :     0.006217  d :     0.079637
      dxz     :     0.011850
      dyz     :     0.002737
      dx2y2   :     0.032098
      dxy     :     0.026734

  1 C s       :     2.908260  s :     2.908260
      pz      :     0.976674  p :     3.168002
      px      :     1.092000
      py      :     1.099327
      dz2     :     0.006240  d :     0.079536
      dxz     :     0.005070
      dyz     :     0.009438
      dx2y2   :     0.028034
      dxy     :     0.030755

  2 C s       :     2.908260  s :     2.908260
      pz      :     0.976674  p :     3.168002
      px      :     1.092000
      py      :     1.099327
      dz2     :     0.006240  d :     0.079536
      dxz     :     0.005070
      dyz     :     0.009438
      dx2y2   :     0.028034
      dxy     :     0.030755

  3 C s       :     2.908482  s :     2.908482
      pz      :     0.985767  p :     3.175626
      px      :     1.102677
      py      :     1.087182
      dz2     :     0.006217  d :     0.079637
      dxz     :     0.011850
      dyz     :     0.002737
      dx2y2   :     0.032098
      dxy     :     0.026734

  4 C s       :     2.908137  s :     2.908137
      pz      :     0.990134  p :     3.179924
      px      :     1.091186
      py      :     1.098604
      dz2     :     0.006180  d :     0.079716
      dxz     :     0.005027
      dyz     :     0.009707
      dx2y2   :     0.028082
      dxy     :     0.030720

  5 C s       :     2.908136  s :     2.908136
      pz      :     0.990134  p :     3.179924
      px      :     1.091186
      py      :     1.098604
      dz2     :     0.006180  d :     0.079716
      dxz     :     0.005027
      dyz     :     0.009707
      dx2y2   :     0.028082
      dxy     :     0.030720

  6 H s       :     0.837996  s :     0.837996

  7 H s       :     0.836491  s :     0.836491

  8 H s       :     0.836491  s :     0.836491

  9 H s       :     0.837996  s :     0.837996

 10 H s       :     0.838195  s :     0.838195

 11 H s       :     0.838195  s :     0.838195

 12 C s       :     2.908482  s :     2.908482
      pz      :     0.985767  p :     3.175626
      px      :     1.102677
      py      :     1.087182
      dz2     :     0.006217  d :     0.079637
      dxz     :     0.011850
      dyz     :     0.002737
      dx2y2   :     0.032098
      dxy     :     0.026734

 13 C s       :     2.908136  s :     2.908136
      pz      :     0.990134  p :     3.179924
      px      :     1.091186
      py      :     1.098604
      dz2     :     0.006180  d :     0.079716
      dxz     :     0.005027
      dyz     :     0.009707
      dx2y2   :     0.028082
      dxy     :     0.030720

 14 C s       :     2.908136  s :     2.908136
      pz      :     0.990134  p :     3.179924
      px      :     1.091186
      py      :     1.098604
      dz2     :     0.006180  d :     0.079716
      dxz     :     0.005027
      dyz     :     0.009707
      dx2y2   :     0.028082
      dxy     :     0.030720

 15 C s       :     2.908482  s :     2.908482
      pz      :     0.985767  p :     3.175626
      px      :     1.102677
      py      :     1.087182
      dz2     :     0.006217  d :     0.079637
      dxz     :     0.011850
      dyz     :     0.002737
      dx2y2   :     0.032098
      dxy     :     0.026734

 16 C s       :     2.908260  s :     2.908260
      pz      :     0.976674  p :     3.168002
      px      :     1.092000
      py      :     1.099327
      dz2     :     0.006240  d :     0.079536
      dxz     :     0.005070
      dyz     :     0.009438
      dx2y2   :     0.028034
      dxy     :     0.030755

 17 C s       :     2.908260  s :     2.908260
      pz      :     0.976674  p :     3.168002
      px      :     1.092000
      py      :     1.099327
      dz2     :     0.006240  d :     0.079536
      dxz     :     0.005070
      dyz     :     0.009438
      dx2y2   :     0.028034
      dxy     :     0.030755

 18 H s       :     0.837996  s :     0.837996

 19 H s       :     0.838195  s :     0.838195

 20 H s       :     0.838195  s :     0.838195

 21 H s       :     0.837996  s :     0.837996

 22 H s       :     0.836491  s :     0.836491

 23 H s       :     0.836491  s :     0.836491



                      *****************************
                      * MAYER POPULATION ANALYSIS *
                      *****************************

  NA   - Mulliken gross atomic population
  ZA   - Total nuclear charge
  QA   - Mulliken gross atomic charge
  VA   - Mayer's total valence
  BVA  - Mayer's bonded valence
  FA   - Mayer's free valence

  ATOM       NA         ZA         QA         VA         BVA        FA
  0 C      6.1683     6.0000    -0.1683     4.0061     4.0061    -0.0000
  1 C      6.1173     6.0000    -0.1173     4.0036     4.0036    -0.0000
  2 C      6.1174     6.0000    -0.1174     4.0036     4.0036     0.0000
  3 C      6.1683     6.0000    -0.1683     4.0061     4.0061     0.0000
  4 C      6.1655     6.0000    -0.1655     3.9815     3.9815    -0.0000
  5 C      6.1655     6.0000    -0.1655     3.9815     3.9815    -0.0000
  6 H      0.8500     1.0000     0.1500     0.9449     0.9449    -0.0000
  7 H      0.8526     1.0000     0.1474     0.9482     0.9482    -0.0000
  8 H      0.8526     1.0000     0.1474     0.9482     0.9482    -0.0000
  9 H      0.8500     1.0000     0.1500     0.9449     0.9449     0.0000
 10 H      0.8463     1.0000     0.1537     0.9422     0.9422    -0.0000
 11 H      0.8463     1.0000     0.1537     0.9422     0.9422    -0.0000
 12 C      6.1683     6.0000    -0.1683     4.0061     4.0061     0.0000
 13 C      6.1655     6.0000    -0.1655     3.9815     3.9815     0.0000
 14 C      6.1655     6.0000    -0.1655     3.9815     3.9815     0.0000
 15 C      6.1683     6.0000    -0.1683     4.0061     4.0061     0.0000
 16 C      6.1174     6.0000    -0.1174     4.0036     4.0036    -0.0000
 17 C      6.1174     6.0000    -0.1174     4.0036     4.0036     0.0000
 18 H      0.8500     1.0000     0.1500     0.9449     0.9449     0.0000
 19 H      0.8463     1.0000     0.1537     0.9422     0.9422     0.0000
 20 H      0.8463     1.0000     0.1537     0.9422     0.9422    -0.0000
 21 H      0.8500     1.0000     0.1500     0.9449     0.9449     0.0000
 22 H      0.8526     1.0000     0.1474     0.9482     0.9482    -0.0000
 23 H      0.8526     1.0000     0.1474     0.9482     0.9482    -0.0000

  Mayer bond orders larger than 0.100000
B(  0-C ,  1-C ) :   1.4956 B(  0-C ,  5-C ) :   1.4955 B(  0-C ,  6-H ) :   0.9152 
B(  1-C ,  2-C ) :   1.5253 B(  1-C ,  7-H ) :   0.9027 B(  2-C ,  3-C ) :   1.4956 
B(  2-C ,  8-H ) :   0.9027 B(  3-C ,  4-C ) :   1.4955 B(  3-C ,  9-H ) :   0.9152 
B(  4-C ,  5-C ) :   1.4934 B(  4-C , 10-H ) :   0.9146 B(  5-C , 11-H ) :   0.9146 
B( 12-C , 13-C ) :   1.4956 B( 12-C , 17-C ) :   1.4956 B( 12-C , 18-H ) :   0.9152 
B( 13-C , 14-C ) :   1.4934 B( 13-C , 19-H ) :   0.9146 B( 14-C , 15-C ) :   1.4956 
B( 14-C , 20-H ) :   0.9146 B( 15-C , 16-C ) :   1.4956 B( 15-C , 21-H ) :   0.9152 
B( 16-C , 17-C ) :   1.5253 B( 16-C , 22-H ) :   0.9027 B( 17-C , 23-H ) :   0.9027 


-------
TIMINGS
-------

Total SCF time: 0 days 0 hours 0 min 11 sec 

Total time                  ....      11.511 sec
Sum of individual times     ....      10.866 sec  ( 94.4%)

SCF preparation             ....       0.095 sec  (  0.8%)
Fock matrix formation       ....      10.277 sec  ( 89.3%)
  Startup                   ....       0.005 sec  (  0.0% of F)
  Split-RI-J                ....       2.947 sec  ( 28.7% of F)
  XC integration            ....       7.826 sec  ( 76.2% of F)
    XC Preparation          ....       0.000 sec  (  0.0% of XC)
    Basis function eval.    ....       2.207 sec  ( 28.2% of XC)
    Density eval.           ....       2.071 sec  ( 26.5% of XC)
    XC-Functional eval.     ....       0.292 sec  (  3.7% of XC)
    XC-Potential eval.      ....       2.387 sec  ( 30.5% of XC)
Diagonalization             ....       0.000 sec  (  0.0%)
Density matrix formation    ....       0.048 sec  (  0.4%)
Total Energy calculation    ....       0.020 sec  (  0.2%)
Population analysis         ....       0.025 sec  (  0.2%)
Orbital Transformation      ....       0.038 sec  (  0.3%)
Orbital Orthonormalization  ....       0.000 sec  (  0.0%)
DIIS solution               ....       0.234 sec  (  2.0%)
SOSCF solution              ....       0.128 sec  (  1.1%)
Finished LeanSCF after  11.5 sec

Maximum memory used throughout the entire LEANSCF-calculation: 20.4 MB


           ************************************************************
           *        Program running with 4 parallel MPI-processes     *
           *              working on a common directory               *
           ************************************************************

------------------------------------------------------------------------------
                         ORCA PROPERTY INTEGRAL CALCULATIONS
------------------------------------------------------------------------------

GBWName                                   ... dimero_PD.gbw
Number of atoms                           ...     24
Number of basis functions                 ...    264
Max core memory                           ...   2500 MB

Dipole integrals                          ... YES
Quadrupole integrals                      ...  NO
Linear momentum integrals                 ...  NO
Angular momentum integrals                ...  NO
Higher moments length integrals           ...  NO
Higher moments velocity integrals         ...  NO
Kinetic energy integrals                  ...  NO
GIAO right hand sides                     ...  NO
GIAO dipole derivative integrals          ...  NO
SOC integrals                             ...  NO
EPR diamagnetic integrals (GIAO)          ...  NO
EPR gauge integrals                       ...  NO
Field gradient integrals                  ...  NO (   0 nuclei)
Spin-dipole/Fermi contact integrals       ...  NO (   0 nuclei)
Contact density integrals                 ...  NO (   0 nuclei)
Nucleus-orbit integrals                   ...  NO (   0 nuclei)
Geometric perturbations                   ...  NO (  24 nuclei)

Choice of electric origin   ... Center of mass
Position of electric origin ... (  0.0000, -0.0000, -0.0000) 
Choice of magnetic origin   ... GIAO
Position of magnetic origin ... (  0.0000,  0.0000,  0.0000) 

Calculating integrals                     ... Electric Dipole (Length)     done (  0.0 sec)

Property integrals calculated in   0.0 sec

Maximum memory used throughout the entire PROPINT-calculation: 17.4 MB


-------------------------------------------------------------------------------
                          DFT DISPERSION CORRECTION                            
                                                                               
                              DFTD3 V3.1  Rev 1                                
                          USING Becke-Johnson damping                          
-------------------------------------------------------------------------------
The B97-3c composite method is recognized
Using three-body term ABC
Active option DFTDOPT                   ...         4   

molecular C6(AA) [au] = 6637.366093 


            DFT-D V3
 parameters
 s6 scaling factor         :     1.0000 
 a1 scaling factor         :     0.3700 
 s8 scaling factor         :     1.5000 
 a2 scaling factor         :     4.1000 
 Damping factor alpha9(ATM):    16.0000 
 ad hoc parameters k1-k3   :    16.0000     1.3333    -4.0000 

 Edisp/kcal,au: -37.361458186358  -0.059539267127 
 E6   /kcal   : -19.016574990 
 E8   /kcal   : -18.497613874 
 E6(ABC)      :   0.152730678 
 % E8         :  49.509882034 
 % E6(ABC)    :  -0.408792070 

-------------------------   ----------------
Dispersion correction           -0.059539267
-------------------------   ----------------

------------------   -----------------
SRB correction            -0.077821776
------------------   -----------------

-------------------------   --------------------
FINAL SINGLE POINT ENERGY      -464.264496486363
-------------------------   --------------------



           ************************************************************
           *        Program running with 4 parallel MPI-processes     *
           *              working on a common directory               *
           ************************************************************
------------------------------------------------------------------------------
                         ORCA SCF GRADIENT CALCULATION
------------------------------------------------------------------------------

Nuc. rep. gradient        (SHARK) ... done (  0.0 sec)
HCore & Overlap gradient  (SHARK) ... done (  0.3 sec)
Split-RIJ-J gradient      (SHARK) ... done (  0.8 sec)
XC gradient                       ... done (  4.0 sec)
Dispersion correction             ... done (  0.1 sec)

-------------------
DISPERSION GRADIENT
-------------------

   1   C   :   -0.000169133    0.000671648   -0.000698277
   2   C   :    0.000390834    0.000359056   -0.001044426
   3   C   :    0.000390834   -0.000359056   -0.001044426
   4   C   :   -0.000169133   -0.000671648   -0.000698277
   5   C   :   -0.000662616   -0.000312682   -0.000451110
   6   C   :   -0.000662616    0.000312682   -0.000451110
   7   H   :   -0.000035401    0.000441149   -0.000133383
   8   H   :    0.000354119    0.000242999   -0.000304171
   9   H   :    0.000354119   -0.000242999   -0.000304171
  10   H   :   -0.000035401   -0.000441149   -0.000133383
  11   H   :   -0.000373849   -0.000205713   -0.000053769
  12   H   :   -0.000373849    0.000205713   -0.000053769
  13   C   :    0.000169133    0.000671648    0.000698277
  14   C   :    0.000662616    0.000312682    0.000451110
  15   C   :    0.000662616   -0.000312682    0.000451110
  16   C   :    0.000169133   -0.000671648    0.000698277
  17   C   :   -0.000390834   -0.000359056    0.001044426
  18   C   :   -0.000390834    0.000359056    0.001044426
  19   H   :    0.000035401    0.000441149    0.000133383
  20   H   :    0.000373849    0.000205713    0.000053769
  21   H   :    0.000373849   -0.000205713    0.000053769
  22   H   :    0.000035401   -0.000441149    0.000133383
  23   H   :   -0.000354119   -0.000242999    0.000304171
  24   H   :   -0.000354119    0.000242999    0.000304171

Difference to translation invariance:
           :    0.0000000000    0.0000000000   -0.0000000000

Difference to rotation invariance:
           :    0.0000000000   -0.0000000000    0.0000000000

Norm of the Dispersion gradient    ...    0.0038759419
RMS gradient                       ...    0.0004567841
MAX gradient                       ...    0.0010444258
SRB correction                   ... done

------------------
CARTESIAN GRADIENT
------------------

   1   C   :   -0.000042617    0.004078037    0.000277159
   2   C   :    0.003061131    0.002294541    0.000354661
   3   C   :    0.003061132   -0.002294542    0.000354656
   4   C   :   -0.000042621   -0.004078041    0.000277142
   5   C   :   -0.003260377   -0.001445188   -0.000321941
   6   C   :   -0.003260380    0.001445189   -0.000321976
   7   H   :   -0.000027904    0.003300171   -0.000180625
   8   H   :    0.003140820    0.001941031   -0.000561215
   9   H   :    0.003140821   -0.001941031   -0.000561210
  10   H   :   -0.000027904   -0.003300170   -0.000180621
  11   H   :   -0.002759748   -0.001602962    0.000056695
  12   H   :   -0.002759754    0.001602963    0.000056697
  13   C   :    0.000042617    0.004078035   -0.000277100
  14   C   :    0.003260379    0.001445190    0.000321950
  15   C   :    0.003260373   -0.001445187    0.000321916
  16   C   :    0.000042616   -0.004078039   -0.000277092
  17   C   :   -0.003061128   -0.002294542   -0.000354685
  18   C   :   -0.003061127    0.002294543   -0.000354705
  19   H   :    0.000027906    0.003300175    0.000180610
  20   H   :    0.002759750    0.001602962   -0.000056694
  21   H   :    0.002759755   -0.001602962   -0.000056686
  22   H   :    0.000027904   -0.003300173    0.000180609
  23   H   :   -0.003140821   -0.001941029    0.000561225
  24   H   :   -0.003140821    0.001941029    0.000561232

Difference to translation invariance:
           :    0.0000000000    0.0000000000   -0.0000000000

Difference to rotation invariance:
           :   -0.0000000260    0.0000773817    0.0000000002

Norm of the Cartesian gradient     ...    0.0178160944
RMS gradient                       ...    0.0020996469
MAX gradient                       ...    0.0040780412

-------
TIMINGS
-------

Total SCF gradient time     ....        5.143 sec

Densities                   ....       0.001 sec  (  0.0%)
One electron gradient       ....       0.300 sec  (  5.8%)
RI-J Coulomb gradient       ....       0.792 sec  ( 15.4%)
XC gradient                 ....       3.986 sec  ( 77.5%)

Maximum memory used throughout the entire SCFGRAD-calculation: 37.0 MB
------------------------------------------------------------------------------
                         ORCA GEOMETRY RELAXATION STEP
------------------------------------------------------------------------------

Reading the OPT-File                    .... done
Getting information on internals        .... done
Copying old internal coords+grads       .... done
Making the new internal coordinates     .... (2022 redundants) done
Validating the new internal coordinates .... (2022 redundants) done
Calculating the B-matrix                .... done
Calculating the G,G- and P matrices     .... done
Transforming gradient to internals      .... done
Projecting the internal gradient        .... done
Number of atoms                         ....  24
Number of internal coordinates          .... 1130
Current Energy                          ....  -464.264496486 Eh
Current gradient norm                   ....     0.017816094 Eh/bohr
Maximum allowed component of the step   ....  0.300
Current trust radius                    ....  0.300
Evaluating the initial hessian          ....  (Almloef) done
Projecting the Hessian                  .... done
Forming the augmented Hessian           .... done
Diagonalizing the augmented Hessian     .... done
Last element of RFO vector              ....  0.997031236
Lowest eigenvalues of augmented Hessian:
 -0.001281099  0.010807155  0.014020385  0.018179858  0.018338784
Length of the computed step             ....  0.077227409
The final length of the internal step   ....  0.077227409
Converting the step to Cartesian space:
 Initial RMS(Int)=    0.0022973769
Transforming coordinates:
 Iter   0:  RMS(Cart)=    0.0091742468 RMS(Int)=    1.3986633088
done
Storing new coordinates                 .... done

                                .--------------------.
          ----------------------|Geometry convergence|-------------------------
          Item                value                   Tolerance       Converged
          ---------------------------------------------------------------------
          RMS gradient        0.0005579885            0.0001000000      NO
          MAX gradient        0.0034632804            0.0003000000      NO
          RMS step            0.0022973769            0.0020000000      NO
          MAX step            0.0136814965            0.0040000000      NO
          -------------------------------------------------------------------------
          ........................................................
          Max(Bonds)      0.0072      Max(Angles)    0.16
          Max(Dihed)        0.15      Max(Improp)    0.00
          ---------------------------------------------------------------------

The optimization has not yet converged - more geometry cycles are needed


    ---------------------------------------------------------------------------
                         Redundant Internal Coordinates
                            (Angstroem and degrees)

        Definition                    Value    dE/dq     Step     New-Value
    ----------------------------------------------------------------------------
     1. B(C   1,C   0)                1.3952  0.003148 -0.0055    1.3897   
     2. B(C   2,C   1)                1.3952  0.002591 -0.0059    1.3893   
     3. B(C   3,C   2)                1.3952  0.003172 -0.0055    1.3897   
     4. B(C   4,C   3)                1.3952  0.003440 -0.0057    1.3896   
     5. B(C   5,C   4)                1.3952  0.002894 -0.0054    1.3898   
     6. B(C   5,C   0)                1.3952  0.003463 -0.0057    1.3896   
     7. B(H   6,C   0)                1.0871  0.003015 -0.0047    1.0824   
     8. B(H   7,C   1)                1.0871  0.000938 -0.0050    1.0821   
     9. B(H   8,C   2)                1.0871  0.000957 -0.0050    1.0821   
    10. B(H   9,C   3)                1.0871  0.003073 -0.0047    1.0824   
    11. B(H  10,C   4)                1.0871  0.002346 -0.0045    1.0826   
    12. B(H  11,C   5)                1.0871  0.002381 -0.0045    1.0826   
    13. B(C  12,C   5)                4.6188  0.001981 -0.0046    4.6142   
    14. B(C  12,C   0)                3.9395 -0.000515 -0.0003    3.9392   
    15. B(C  12,C   2)                4.1825  0.000877 -0.0032    4.1793   
    16. B(C  12,H   7)                3.6450 -0.001412  0.0007    3.6457   
    17. B(C  12,C   1)                3.6878 -0.001146  0.0008    3.6886   
    18. B(C  12,H   8)                4.4959  0.001534 -0.0060    4.4899   
    19. B(C  12,H   6)                4.0868  0.000156 -0.0013    4.0855   
    20. B(C  13,C  12)                1.3952  0.003403 -0.0056    1.3896   
    21. B(C  13,C   0)                4.6188  0.001992 -0.0046    4.6142   
    22. B(C  13,C   1)                3.9395 -0.000543 -0.0004    3.9392   
    23. B(C  13,C   2)                4.1793  0.000422 -0.0023    4.1771   
    24. B(C  13,H   7)                3.6999 -0.001620  0.0012    3.7011   
    25. B(C  13,H   8)                4.1416 -0.000010 -0.0024    4.1392   
    26. B(C  14,C  13)                1.3952  0.003061 -0.0054    1.3898   
    27. B(C  14,C   3)                4.6188  0.001973 -0.0046    4.6142   
    28. B(C  14,C   2)                3.9395 -0.000525 -0.0004    3.9391   
    29. B(C  14,H   8)                3.6999 -0.001604  0.0012    3.7011   
    30. B(C  14,C   1)                4.1793  0.000458 -0.0023    4.1770   
    31. B(C  14,H   7)                4.1416  0.000018 -0.0024    4.1392   
    32. B(C  15,H   8)                3.6450 -0.001399  0.0007    3.6457   
    33. B(C  15,C   4)                4.6188  0.002029 -0.0046    4.6142   
    34. B(C  15,H   7)                4.4959  0.001563 -0.0060    4.4899   
    35. B(C  15,C   3)                3.9395 -0.000547 -0.0002    3.9393   
    36. B(C  15,C   1)                4.1825  0.000921 -0.0033    4.1793   
    37. B(C  15,C  14)                1.3952  0.003407 -0.0057    1.3896   
    38. B(C  15,H   9)                4.0868  0.000102 -0.0011    4.0857   
    39. B(C  15,C   2)                3.6878 -0.001127  0.0008    3.6886   
    40. B(C  16,H   9)                4.0372  0.000570 -0.0017    4.0355   
    41. B(C  16,C   1)                3.9463  0.000374 -0.0022    3.9441   
    42. B(C  16,C   4)                3.9395 -0.000489 -0.0005    3.9391   
    43. B(C  16,H   7)                4.4508  0.001602 -0.0065    4.4444   
    44. B(C  16,H  10)                4.4401  0.000752 -0.0027    4.4374   
    45. B(C  16,C   0)                4.1825  0.000979 -0.0033    4.1792   
    46. B(C  16,C   5)                4.1793  0.000457 -0.0023    4.1770   
    47. B(C  16,H   8)                4.0431  0.000366 -0.0034    4.0397   
    48. B(C  16,C   2)                3.6915 -0.000631 -0.0001    3.6913   
    49. B(C  16,C   3)                3.6878 -0.001158  0.0008    3.6886   
    50. B(C  16,C  15)                1.3952  0.003143 -0.0055    1.3897   
    51. B(C  17,H   7)                4.0431  0.000343 -0.0034    4.0397   
    52. B(C  17,H   6)                4.0372  0.000613 -0.0019    4.0353   
    53. B(C  17,C   5)                3.9395 -0.000538 -0.0004    3.9391   
    54. B(C  17,C   0)                3.6878 -0.001119  0.0007    3.6886   
    55. B(C  17,H  11)                4.4401  0.000725 -0.0026    4.4375   
    56. B(C  17,C   2)                3.9463  0.000336 -0.0022    3.9441   
    57. B(C  17,H   8)                4.4508  0.001581 -0.0064    4.4444   
    58. B(C  17,C   3)                4.1825  0.000909 -0.0032    4.1793   
    59. B(C  17,C   4)                4.1793  0.000473 -0.0023    4.1770   
    60. B(C  17,C  16)                1.3952  0.002793 -0.0060    1.3893   
    61. B(C  17,C  12)                1.3952  0.003109 -0.0055    1.3897   
    62. B(C  17,C   1)                3.6915 -0.000645 -0.0001    3.6913   
    63. B(H  18,C   1)                4.0372  0.000616 -0.0018    4.0353   
    64. B(H  18,H   6)                3.9395 -0.000820  0.0003    3.9398   
    65. B(H  18,H   7)                3.8474 -0.000085 -0.0007    3.8468   
    66. B(H  18,C  12)                1.0871  0.003013 -0.0047    1.0824   
    67. B(H  18,C   0)                4.0868  0.000161 -0.0013    4.0855   
    68. B(H  19,H   8)                4.6564  0.001344 -0.0044    4.6520   
    69. B(H  19,H   7)                3.9395 -0.001052  0.0012    3.9408   
    70. B(H  19,C   1)                4.4401  0.000749 -0.0026    4.4375   
    71. B(H  19,C  13)                1.0871  0.002386 -0.0045    1.0826   
    72. B(H  20,H   8)                3.9395 -0.001035  0.0012    3.9407   
    73. B(H  20,H   7)                4.6564  0.001365 -0.0045    4.6519   
    74. B(H  20,C  14)                1.0871  0.002359 -0.0045    1.0826   
    75. B(H  20,C   2)                4.4401  0.000765 -0.0027    4.4374   
    76. B(H  21,C   2)                4.0372  0.000627 -0.0018    4.0354   
    77. B(H  21,H   9)                3.9395 -0.000907  0.0006    3.9401   
    78. B(H  21,C  15)                1.0871  0.003019 -0.0047    1.0824   
    79. B(H  21,H   8)                3.8474 -0.000085 -0.0006    3.8468   
    80. B(H  21,C   3)                4.0868  0.000116 -0.0011    4.0856   
    81. B(H  22,C   2)                4.0431  0.000365 -0.0034    4.0397   
    82. B(H  22,C   3)                3.6450 -0.001424  0.0007    3.6457   
    83. B(H  22,H  11)                4.6564  0.001366 -0.0045    4.6519   
    84. B(H  22,H   8)                4.4997  0.001489 -0.0072    4.4925   
    85. B(H  22,C  16)                1.0871  0.000918 -0.0050    1.0821   
    86. B(H  22,H  10)                3.9395 -0.001017  0.0011    3.9407   
    87. B(H  22,C   0)                4.4959  0.001629 -0.0061    4.4898   
    88. B(H  22,C   1)                4.4508  0.001597 -0.0065    4.4444   
    89. B(H  22,H   9)                3.8474 -0.000163 -0.0005    3.8470   
    90. B(H  22,C   4)                3.6999 -0.001547  0.0011    3.7010   
    91. B(H  22,C   5)                4.1416  0.000023 -0.0024    4.1392   
    92. B(H  23,C   0)                3.6450 -0.001357  0.0007    3.6456   
    93. B(H  23,H  11)                3.9395 -0.001035  0.0012    3.9407   
    94. B(H  23,H  10)                4.6564  0.001390 -0.0045    4.6519   
    95. B(H  23,C  17)                1.0871  0.000925 -0.0050    1.0821   
    96. B(H  23,H   7)                4.4997  0.001485 -0.0072    4.4925   
    97. B(H  23,C   3)                4.4959  0.001587 -0.0060    4.4899   
    98. B(H  23,C   2)                4.4508  0.001583 -0.0064    4.4444   
    99. B(H  23,H   6)                3.8474 -0.000086 -0.0007    3.8467   
   100. B(H  23,C   4)                4.1416  0.000067 -0.0025    4.1391   
   101. B(H  23,C   5)                3.6999 -0.001573  0.0012    3.7011   
   102. B(H  23,C   1)                4.0431  0.000374 -0.0034    4.0397   
   103. A(C   1,C   0,C   5)          120.00 -0.000014    0.02    120.02   
   104. A(H   6,C   0,C  13)           98.69  0.000084   -0.02     98.67   
   105. A(C   1,C   0,C  17)           79.25 -0.000081    0.01     79.26   
   106. A(C   5,C   0,C  17)           89.85 -0.000287    0.04     89.89   
   107. A(H   6,C   0,C  12)           90.00 -0.000075    0.02     90.02   
   108. A(C   5,C   0,C  16)           80.26 -0.000399    0.07     80.34   
   109. A(C  12,C   0,C  16)           34.45  0.000675   -0.13     34.33   
   110. A(C  12,C   0,C  13)           16.43  0.000290   -0.05     16.38   
   111. A(C   1,C   0,C  13)           52.98 -0.000545    0.09     53.07   
   112. A(C   1,C   0,H   6)          120.00  0.000076   -0.01    119.99   
   113. A(C   5,C   0,C  13)          116.81  0.000279   -0.04    116.77   
   114. A(C  16,C   0,C  17)           19.12  0.000306   -0.07     19.06   
   115. A(C  13,C   0,C  16)           36.55  0.000678   -0.12     36.43   
   116. A(C  13,C   0,C  17)           31.35  0.000621   -0.10     31.25   
   117. A(H   6,C   0,C  16)          120.03  0.000501   -0.09    119.93   
   118. A(C  12,C   0,C  17)           20.74  0.000472   -0.08     20.66   
   119. A(C   5,C   0,C  12)          110.59  0.000185   -0.04    110.55   
   120. A(C   1,C   0,C  16)           70.65 -0.000211    0.04     70.69   
   121. A(C   5,C   0,H   6)          120.00 -0.000062   -0.01    119.99   
   122. A(C   1,C   0,C  12)           69.41 -0.000255    0.05     69.45   
   123. A(H   6,C   0,C  17)          100.90  0.000195   -0.03    100.88   
   124. A(C  13,C   1,C  14)           19.50  0.000391   -0.07     19.43   
   125. A(C   2,C   1,C  12)          100.90  0.000290   -0.05    100.86   
   126. A(C  14,C   1,C  16)           34.45  0.000740   -0.12     34.33   
   127. A(C   2,C   1,C  13)           90.00  0.000028    0.00     90.00   
   128. A(C   0,C   1,C  16)           89.86 -0.000167    0.03     89.89   
   129. A(C   0,C   1,C  15)          109.35  0.000213   -0.04    109.31   
   130. A(C  13,C   1,C  16)           41.45  0.000918   -0.16     41.29   
   131. A(H   7,C   1,C  14)           80.52 -0.000252    0.02     80.54   
   132. A(H   7,C   1,C  15)           99.74  0.000156   -0.05     99.68   
   133. A(C   0,C   1,C  12)           89.85 -0.000223    0.04     89.89   
   134. A(C   2,C   1,C  17)           90.00  0.000009    0.00     90.00   
   135. A(H   7,C   1,C  16)          110.85  0.000419   -0.09    110.76   
   136. A(C  16,C   1,C  17)           20.70  0.000381   -0.08     20.62   
   137. A(C   0,C   1,C  13)          110.59  0.000293   -0.05    110.55   
   138. A(C   0,C   1,C  14)          119.90  0.000486   -0.08    119.82   
   139. A(H   7,C   1,C  12)           79.25 -0.000205    0.03     79.27   
   140. A(H   7,C   1,C  13)           69.41 -0.000499    0.06     69.47   
   141. A(C   0,C   1,C   2)          120.00  0.000067   -0.01    119.99   
   142. A(C  12,C   1,C  13)           20.74  0.000516   -0.09     20.66   
   143. A(C   2,C   1,H   7)          120.00 -0.000113    0.00    120.00   
   144. A(C  15,C   1,C  16)           19.49  0.000380   -0.06     19.42   
   145. A(C   0,C   1,H   7)          120.00  0.000046    0.00    120.00   
   146. A(C  13,C   1,C  15)           34.45  0.000724   -0.13     34.33   
   147. A(C   2,C   1,C  16)           69.30 -0.000372    0.08     69.38   
   148. A(C  15,C   1,C  17)           35.05  0.000701   -0.13     34.92   
   149. A(C   2,C   1,C  15)           59.97 -0.000582    0.11     60.09   
   150. A(H   7,C   1,C  17)          101.05  0.000298   -0.06    100.98   
   151. A(C  14,C   1,C  17)           40.94  0.000913   -0.16     40.79   
   152. A(C   0,C   1,C  17)           78.95 -0.000427    0.08     79.03   
   153. A(C  14,C   1,C  15)           19.21  0.000408   -0.07     19.14   
   154. A(C  12,C   1,C  15)           40.93  0.000873   -0.16     40.77   
   155. A(C   2,C   1,C  14)           70.50 -0.000363    0.07     70.57   
   156. A(C  12,C   1,C  17)           21.80  0.000503   -0.09     21.71   
   157. A(C  13,C   1,C  17)           36.74  0.000881   -0.15     36.60   
   158. A(C  12,C   1,C  16)           36.71  0.000778   -0.15     36.57   
   159. A(C  12,C   1,C  14)           35.08  0.000785   -0.14     34.94   
   160. A(C   1,C   2,H   8)          120.00 -0.000116    0.00    120.00   
   161. A(C  15,C   2,C  17)           36.71  0.000784   -0.15     36.56   
   162. A(C  15,C   2,C  16)           21.80  0.000507   -0.09     21.71   
   163. A(C   1,C   2,C  12)           59.97 -0.000573    0.11     60.09   
   164. A(C  14,C   2,C  16)           36.74  0.000882   -0.15     36.60   
   165. A(C   1,C   2,C  17)           69.30 -0.000364    0.08     69.37   
   166. A(C  12,C   2,C  13)           19.21  0.000409   -0.07     19.14   
   167. A(C   1,C   2,C  14)           90.00  0.000035    0.00     90.00   
   168. A(C  12,C   2,C  17)           19.49  0.000378   -0.06     19.42   
   169. A(C   3,C   2,C  14)          110.59  0.000269   -0.04    110.55   
   170. A(C   3,C   2,C  16)           78.95 -0.000449    0.08     79.04   
   171. A(H   8,C   2,C  14)           69.41 -0.000499    0.06     69.47   
   172. A(H   8,C   2,C  16)          101.05  0.000299   -0.06    100.98   
   173. A(C  13,C   2,C  14)           19.50  0.000392   -0.07     19.43   
   174. A(C  12,C   2,C  16)           35.05  0.000699   -0.13     34.92   
   175. A(C  14,C   2,C  17)           41.45  0.000922   -0.16     41.29   
   176. A(H   8,C   2,C  15)           79.25 -0.000209    0.03     79.27   
   177. A(C   3,C   2,C  15)           89.85 -0.000247    0.04     89.89   
   178. A(C   3,C   2,C  13)          119.90  0.000464   -0.07    119.82   
   179. A(C   1,C   2,C  13)           70.50 -0.000357    0.07     70.57   
   180. A(C   3,C   2,H   8)          120.00  0.000034    0.00    120.00   
   181. A(C  13,C   2,C  15)           35.08  0.000787   -0.14     34.94   
   182. A(H   8,C   2,C  17)          110.85  0.000422   -0.09    110.76   
   183. A(C  12,C   2,C  15)           40.93  0.000875   -0.16     40.77   
   184. A(C  12,C   2,C  14)           34.45  0.000727   -0.13     34.33   
   185. A(C   3,C   2,C  12)          109.35  0.000194   -0.03    109.31   
   186. A(C   1,C   2,C  16)           90.00  0.000020   -0.00     90.00   
   187. A(H   8,C   2,C  13)           80.52 -0.000249    0.02     80.54   
   188. A(C   1,C   2,C   3)          120.00  0.000081   -0.01    119.99   
   189. A(C   3,C   2,C  17)           89.86 -0.000184    0.03     89.89   
   190. A(C  13,C   2,C  17)           34.45  0.000740   -0.12     34.33   
   191. A(C  16,C   2,C  17)           20.70  0.000383   -0.08     20.62   
   192. A(H   8,C   2,C  12)           99.74  0.000160   -0.05     99.69   
   193. A(C  14,C   2,C  15)           20.74  0.000516   -0.09     20.66   
   194. A(C   1,C   2,C  15)          100.90  0.000302   -0.05    100.86   
   195. A(C  13,C   2,C  16)           40.94  0.000913   -0.16     40.79   
   196. A(C  14,C   3,C  15)           16.43  0.000291   -0.05     16.38   
   197. A(C   2,C   3,C  14)           52.98 -0.000527    0.09     53.07   
   198. A(C   4,C   3,C  16)           89.85 -0.000250    0.03     89.88   
   199. A(C   2,C   3,C  16)           79.25 -0.000063    0.01     79.25   
   200. A(H   9,C   3,C  16)          100.90  0.000178   -0.02    100.88   
   201. A(C  15,C   3,C  17)           34.45  0.000684   -0.13     34.33   
   202. A(C  16,C   3,C  17)           19.12  0.000310   -0.07     19.05   
   203. A(C   4,C   3,C  17)           80.26 -0.000366    0.07     80.33   
   204. A(C   2,C   3,C  17)           70.65 -0.000201    0.03     70.69   
   205. A(C   2,C   3,C   4)          120.00 -0.000023    0.02    120.02   
   206. A(C  15,C   3,C  16)           20.74  0.000479   -0.08     20.66   
   207. A(C  14,C   3,C  17)           36.55  0.000682   -0.12     36.43   
   208. A(C   2,C   3,H   9)          120.00  0.000087   -0.01    119.99   
   209. A(H   9,C   3,C  17)          120.03  0.000488   -0.09    119.94   
   210. A(H   9,C   3,C  15)           90.00 -0.000095    0.02     90.02   
   211. A(C   4,C   3,C  15)          110.59  0.000229   -0.05    110.54   
   212. A(C   2,C   3,C  15)           69.41 -0.000237    0.04     69.45   
   213. A(H   9,C   3,C  14)           98.69  0.000070   -0.01     98.68   
   214. A(C   4,C   3,H   9)          120.00 -0.000065   -0.01    119.99   
   215. A(C   4,C   3,C  14)          116.81  0.000316   -0.05    116.76   
   216. A(C  14,C   3,C  16)           31.35  0.000625   -0.10     31.25   
   217. A(C   3,C   4,H  10)          120.00  0.000121    0.01    120.01   
   218. A(C   3,C   4,C  16)           69.41 -0.000269    0.05     69.46   
   219. A(C   5,C   4,C  17)           70.50 -0.000373    0.07     70.57   
   220. A(C   5,C   4,H  10)          120.00 -0.000066    0.01    120.01   
   221. A(H  10,C   4,C  17)          119.90  0.000077   -0.01    119.89   
   222. A(C   3,C   4,C  17)           80.52 -0.000046   -0.00     80.52   
   223. A(C   3,C   4,C   5)          120.00 -0.000055   -0.02    119.98   
   224. A(H  10,C   4,C  16)          110.59 -0.000046    0.02    110.61   
   225. A(H  10,C   4,C  15)          116.81  0.000020    0.01    116.82   
   226. A(C  15,C   4,C  16)           16.43  0.000251   -0.05     16.38   
   227. A(C   5,C   4,C  15)           98.69  0.000148   -0.03     98.66   
   228. A(C   3,C   4,C  15)           52.98 -0.000520    0.10     53.08   
   229. A(C  16,C   4,C  17)           19.50  0.000354   -0.08     19.43   
   230. A(C   5,C   4,C  16)           90.00 -0.000019   -0.00     90.00   
   231. A(C  15,C   4,C  17)           31.38  0.000547   -0.11     31.27   
   232. A(C  12,C   5,C  16)           31.38  0.000546   -0.11     31.27   
   233. A(C   0,C   5,C   4)          120.00 -0.000057   -0.01    119.99   
   234. A(H  11,C   5,C  17)          110.59 -0.000045    0.02    110.61   
   235. A(C   4,C   5,C  17)           90.00  0.000006   -0.01     89.99   
   236. A(C   0,C   5,C  17)           69.41 -0.000237    0.05     69.45   
   237. A(C  16,C   5,C  17)           19.50  0.000355   -0.08     19.43   
   238. A(H  11,C   5,C  16)          119.90  0.000075   -0.01    119.89   
   239. A(C   4,C   5,C  16)           70.50 -0.000349    0.07     70.57   
   240. A(C   0,C   5,C  16)           80.52 -0.000015   -0.01     80.52   
   241. A(C   4,C   5,H  11)          120.00 -0.000062    0.01    120.01   
   242. A(C   0,C   5,H  11)          120.00  0.000119    0.01    120.01   
   243. A(C  12,C   5,C  17)           16.43  0.000248   -0.04     16.38   
   244. A(H  11,C   5,C  12)          116.81  0.000020    0.00    116.81   
   245. A(C   4,C   5,C  12)           98.69  0.000167   -0.03     98.66   
   246. A(C   0,C   5,C  12)           52.98 -0.000485    0.09     53.07   
   247. A(C   1,C  12,C   2)           19.12  0.000283   -0.07     19.05   
   248. A(C   2,C  12,H  18)          120.03  0.000494   -0.10    119.93   
   249. A(C   2,C  12,C  17)           70.65 -0.000189    0.03     70.69   
   250. A(C   2,C  12,C  13)           80.26 -0.000371    0.07     80.34   
   251. A(C   1,C  12,H  18)          100.90  0.000211   -0.03    100.87   
   252. A(C   1,C  12,C  17)           79.25 -0.000068    0.01     79.26   
   253. A(C  17,C  12,H  18)          120.00  0.000047   -0.01    119.99   
   254. A(C   1,C  12,C  13)           89.85 -0.000271    0.04     89.89   
   255. A(C  13,C  12,H  18)          120.00 -0.000042   -0.01    119.99   
   256. A(C   0,C  12,C   5)           16.43  0.000300   -0.05     16.38   
   257. A(C   0,C  12,C   1)           20.74  0.000478   -0.08     20.66   
   258. A(C   0,C  12,H  18)           90.00 -0.000073    0.02     90.02   
   259. A(C   0,C  12,C  17)           69.41 -0.000245    0.04     69.45   
   260. A(C   0,C  12,C  13)          110.59  0.000207   -0.05    110.55   
   261. A(C  13,C  12,C  17)          120.00 -0.000005    0.02    120.02   
   262. A(C   0,C  12,C   2)           34.45  0.000662   -0.13     34.33   
   263. A(C   2,C  12,C   5)           36.55  0.000675   -0.12     36.43   
   264. A(C   1,C  12,C   5)           31.35  0.000632   -0.10     31.25   
   265. A(C   5,C  12,H  18)           98.69  0.000084   -0.02     98.67   
   266. A(C   5,C  12,C  17)           52.98 -0.000545    0.09     53.07   
   267. A(C   5,C  12,C  13)          116.81  0.000303   -0.04    116.77   
   268. A(C   1,C  13,H  19)          110.59 -0.000030    0.02    110.61   
   269. A(C   1,C  13,C  14)           90.00 -0.000021   -0.01     89.99   
   270. A(C   1,C  13,C  12)           69.41 -0.000245    0.05     69.45   
   271. A(C  14,C  13,H  19)          120.00 -0.000053    0.01    120.01   
   272. A(C  12,C  13,H  19)          120.00  0.000105    0.01    120.01   
   273. A(C   0,C  13,C  14)           98.69  0.000150   -0.03     98.66   
   274. A(C   1,C  13,C   2)           19.50  0.000329   -0.08     19.43   
   275. A(C   2,C  13,H  19)          119.90  0.000085   -0.01    119.89   
   276. A(C   2,C  13,C  14)           70.50 -0.000350    0.07     70.57   
   277. A(C   2,C  13,C  12)           80.52 -0.000038   -0.01     80.52   
   278. A(C  12,C  13,C  14)          120.00 -0.000052   -0.01    119.99   
   279. A(C   0,C  13,C   2)           31.38  0.000528   -0.11     31.27   
   280. A(C   0,C  13,C   1)           16.43  0.000252   -0.04     16.38   
   281. A(C   0,C  13,H  19)          116.81  0.000028    0.01    116.82   
   282. A(C   0,C  13,C  12)           52.98 -0.000498    0.09     53.07   
   283. A(C   1,C  14,C   3)           31.38  0.000534   -0.11     31.27   
   284. A(C   2,C  14,C   3)           16.43  0.000258   -0.05     16.38   
   285. A(C   3,C  14,H  20)          116.81  0.000037    0.00    116.81   
   286. A(C   3,C  14,C  13)           98.69  0.000132   -0.03     98.66   
   287. A(C  15,C  14,H  20)          120.00  0.000100    0.01    120.01   
   288. A(C  13,C  14,H  20)          120.00 -0.000043    0.01    120.01   
   289. A(C   2,C  14,H  20)          110.59 -0.000022    0.02    110.61   
   290. A(C   2,C  14,C  15)           69.41 -0.000245    0.05     69.46   
   291. A(C   2,C  14,C  13)           90.00 -0.000042   -0.00     90.00   
   292. A(C   1,C  14,C   2)           19.50  0.000327   -0.08     19.43   
   293. A(C   1,C  14,H  20)          119.90  0.000089   -0.01    119.89   
   294. A(C   1,C  14,C  15)           80.52 -0.000034   -0.01     80.52   
   295. A(C   1,C  14,C  13)           70.50 -0.000370    0.07     70.57   
   296. A(C  13,C  14,C  15)          120.00 -0.000057   -0.01    119.99   
   297. A(C   3,C  14,C  15)           52.98 -0.000503    0.09     53.07   
   298. A(C  14,C  15,H  21)          120.00 -0.000038   -0.01    119.99   
   299. A(C   1,C  15,C   3)           34.45  0.000666   -0.13     34.33   
   300. A(C   1,C  15,C   2)           19.12  0.000280   -0.07     19.06   
   301. A(C   1,C  15,H  21)          120.03  0.000486   -0.09    119.93   
   302. A(C   1,C  15,C  16)           70.65 -0.000191    0.03     70.69   
   303. A(C   1,C  15,C  14)           80.26 -0.000374    0.07     80.34   
   304. A(C   2,C  15,H  21)          100.90  0.000206   -0.03    100.88   
   305. A(C   2,C  15,C  16)           79.25 -0.000072    0.01     79.26   
   306. A(C   2,C  15,C  14)           89.85 -0.000271    0.04     89.89   
   307. A(C  14,C  15,C  16)          120.00 -0.000016    0.02    120.02   
   308. A(C   2,C  15,C   3)           20.74  0.000483   -0.08     20.66   
   309. A(C   3,C  15,H  21)           90.00 -0.000081    0.02     90.02   
   310. A(C   3,C  15,C  16)           69.41 -0.000248    0.04     69.45   
   311. A(C   3,C  15,C  14)          110.59  0.000212   -0.05    110.55   
   312. A(C   1,C  15,C   4)           36.55  0.000674   -0.12     36.43   
   313. A(C   2,C  15,C   4)           31.35  0.000627   -0.10     31.25   
   314. A(C   4,C  15,C  16)           52.98 -0.000539    0.09     53.07   
   315. A(C   4,C  15,C  14)          116.81  0.000300   -0.04    116.77   
   316. A(C   3,C  15,C   4)           16.43  0.000291   -0.05     16.38   
   317. A(C   4,C  15,H  21)           98.69  0.000076   -0.01     98.67   
   318. A(C  16,C  15,H  21)          120.00  0.000054   -0.01    119.99   
   319. A(C   2,C  16,C   4)           36.74  0.000887   -0.15     36.60   
   320. A(C   3,C  16,C   4)           20.74  0.000519   -0.09     20.66   
   321. A(C   4,C  16,H  22)           69.41 -0.000490    0.06     69.47   
   322. A(C   4,C  16,C  17)           90.00  0.000001    0.00     90.00   
   323. A(C   4,C  16,C  15)          110.59  0.000288   -0.04    110.55   
   324. A(C   3,C  16,H  22)           79.25 -0.000205    0.03     79.27   
   325. A(C   3,C  16,C  17)          100.90  0.000265   -0.05    100.86   
   326. A(C   3,C  16,C  15)           89.85 -0.000231    0.04     89.89   
   327. A(C   0,C  16,C   5)           19.21  0.000414   -0.07     19.14   
   328. A(C   0,C  16,C   1)           19.49  0.000379   -0.06     19.42   
   329. A(C   0,C  16,C   4)           34.45  0.000707   -0.12     34.33   
   330. A(C   0,C  16,C   2)           35.05  0.000672   -0.13     34.92   
   331. A(C   0,C  16,C   3)           40.93  0.000850   -0.16     40.77   
   332. A(C   0,C  16,H  22)           99.74  0.000166   -0.05     99.68   
   333. A(C   0,C  16,C  17)           59.97 -0.000585    0.11     60.09   
   334. A(C   0,C  16,C  15)          109.35  0.000189   -0.03    109.31   
   335. A(C  15,C  16,C  17)          120.00  0.000066   -0.01    119.99   
   336. A(C   1,C  16,C   5)           34.45  0.000748   -0.12     34.33   
   337. A(C   4,C  16,C   5)           19.50  0.000368   -0.07     19.43   
   338. A(C   2,C  16,C   5)           40.94  0.000904   -0.16     40.79   
   339. A(C   3,C  16,C   5)           35.08  0.000768   -0.14     34.94   
   340. A(C   5,C  16,H  22)           80.52 -0.000248    0.02     80.54   
   341. A(C   5,C  16,C  17)           70.50 -0.000367    0.07     70.57   
   342. A(C   5,C  16,C  15)          119.90  0.000469   -0.07    119.82   
   343. A(C   2,C  16,C   3)           21.80  0.000512   -0.09     21.71   
   344. A(C   1,C  16,C   4)           41.45  0.000913   -0.16     41.29   
   345. A(C   2,C  16,H  22)          101.05  0.000308   -0.06    100.98   
   346. A(C   1,C  16,C   2)           20.70  0.000352   -0.08     20.62   
   347. A(C   2,C  16,C  17)           90.00 -0.000025    0.00     90.00   
   348. A(C   1,C  16,C   3)           36.71  0.000764   -0.15     36.56   
   349. A(C   2,C  16,C  15)           78.95 -0.000435    0.08     79.04   
   350. A(C   1,C  16,H  22)          110.85  0.000423   -0.09    110.76   
   351. A(C   1,C  16,C  17)           69.30 -0.000377    0.08     69.38   
   352. A(C   1,C  16,C  15)           89.86 -0.000190    0.03     89.89   
   353. A(C  17,C  16,H  22)          120.00 -0.000091    0.00    120.00   
   354. A(C  15,C  16,H  22)          120.00  0.000024    0.00    120.00   
   355. A(C   3,C  17,C   4)           19.21  0.000412   -0.07     19.14   
   356. A(C   2,C  17,C   3)           19.49  0.000385   -0.06     19.42   
   357. A(C   3,C  17,C   5)           34.45  0.000709   -0.13     34.33   
   358. A(C   1,C  17,C   3)           35.05  0.000683   -0.13     34.91   
   359. A(C   1,C  17,C   5)           36.74  0.000892   -0.15     36.60   
   360. A(C   0,C  17,C   3)           40.93  0.000854   -0.16     40.77   
   361. A(C   3,C  17,H  23)           99.74  0.000178   -0.05     99.68   
   362. A(C   0,C  17,C   5)           20.74  0.000525   -0.09     20.66   
   363. A(C   3,C  17,C  16)           59.97 -0.000575    0.11     60.09   
   364. A(C   3,C  17,C  12)          109.35  0.000196   -0.03    109.31   
   365. A(C   5,C  17,H  23)           69.41 -0.000480    0.06     69.47   
   366. A(C   5,C  17,C  16)           90.00  0.000013    0.00     90.00   
   367. A(C   2,C  17,C   4)           34.45  0.000746   -0.12     34.33   
   368. A(C   5,C  17,C  12)          110.59  0.000297   -0.05    110.55   
   369. A(C  12,C  17,C  16)          120.00  0.000064   -0.00    120.00   
   370. A(C   4,C  17,C   5)           19.50  0.000368   -0.07     19.43   
   371. A(C   1,C  17,C   4)           40.94  0.000907   -0.15     40.79   
   372. A(C   0,C  17,C   4)           35.08  0.000769   -0.14     34.94   
   373. A(C   4,C  17,H  23)           80.52 -0.000234    0.01     80.54   
   374. A(C   4,C  17,C  16)           70.50 -0.000355    0.07     70.57   
   375. A(C   4,C  17,C  12)          119.90  0.000472   -0.07    119.82   
   376. A(C   0,C  17,H  23)           79.25 -0.000190    0.03     79.27   
   377. A(C   0,C  17,C  16)          100.90  0.000280   -0.05    100.86   
   378. A(C   0,C  17,C  12)           89.85 -0.000228    0.04     89.89   
   379. A(C  16,C  17,H  23)          120.00 -0.000089    0.00    120.00   
   380. A(C  12,C  17,H  23)          120.00  0.000025    0.00    120.00   
   381. A(C   2,C  17,C   5)           41.45  0.000913   -0.16     41.29   
   382. A(C   0,C  17,C   1)           21.80  0.000508   -0.09     21.71   
   383. A(C   1,C  17,C   2)           20.70  0.000354   -0.08     20.62   
   384. A(C   1,C  17,H  23)          101.05  0.000318   -0.06    100.98   
   385. A(C   0,C  17,C   2)           36.71  0.000759   -0.15     36.56   
   386. A(C   2,C  17,H  23)          110.85  0.000434   -0.09    110.76   
   387. A(C   1,C  17,C  16)           90.00 -0.000004   -0.00     90.00   
   388. A(C   2,C  17,C  16)           69.30 -0.000359    0.08     69.37   
   389. A(C   2,C  17,C  12)           89.86 -0.000189    0.03     89.89   
   390. A(C   1,C  17,C  12)           78.95 -0.000435    0.08     79.04   
   391. D(C   2,C   1,C   0,C  12)    102.53  0.000214   -0.03    102.50   
   392. D(C  12,C   1,C   0,C   5)   -102.53 -0.000093    0.03   -102.49   
   393. D(C  12,C   1,C   0,C  17)    -19.00 -0.000478    0.08    -18.92   
   394. D(H   7,C   1,C   0,C  12)    -77.47  0.000377   -0.05    -77.52   
   395. D(C   2,C   1,C   0,C   5)      0.00  0.000121    0.00      0.00   
   396. D(C  12,C   1,C   0,C  13)      0.00  0.000054    0.00      0.00   
   397. D(C  17,C   1,C   0,H   6)     96.47  0.000172   -0.03     96.44   
   398. D(H   7,C   1,C   0,C  16)   -114.18 -0.000401    0.09   -114.09   
   399. D(H   7,C   1,C   0,C  17)    -96.47 -0.000101    0.03    -96.44   
   400. D(H   7,C   1,C   0,H   6)      0.00  0.000070    0.00      0.00   
   401. D(C  12,C   1,C   0,C  16)    -36.71 -0.000778    0.15    -36.57   
   402. D(C   2,C   1,C   0,C  16)     65.82 -0.000564    0.11     65.93   
   403. D(H   7,C   1,C   0,C  13)    -77.47  0.000430   -0.05    -77.52   
   404. D(C  17,C   1,C   0,C  12)     19.00  0.000478   -0.08     18.92   
   405. D(C  17,C   1,C   0,C   5)    -83.53  0.000385   -0.05    -83.58   
   406. D(H   7,C   1,C   0,C   5)    180.00  0.000284   -0.02    179.98   
   407. D(C  12,C   1,C   0,H   6)     77.47 -0.000306    0.05     77.53   
   408. D(C   2,C   1,C   0,C  17)     83.53 -0.000264    0.05     83.58   
   409. D(C   2,C   1,C   0,C  13)    102.53  0.000267   -0.03    102.50   
   410. D(C   2,C   1,C   0,H   6)    180.00 -0.000093    0.02    180.02   
   411. D(C  17,C   1,C   0,C  16)    -17.71 -0.000300    0.06    -17.65   
   412. D(C   3,C   2,C   1,C  13)    113.96  0.000359   -0.05    113.91   
   413. D(C  15,C   2,C   1,C  13)     17.75  0.000448   -0.07     17.68   
   414. D(C  15,C   2,C   1,C  16)    -18.99 -0.000432    0.08    -18.91   
   415. D(H   8,C   2,C   1,C  12)    -83.79  0.000083   -0.00    -83.80   
   416. D(C  15,C   2,C   1,C  12)      0.00 -0.000005    0.00      0.00   
   417. D(H   8,C   2,C   1,C   0)    180.00  0.000155   -0.02    179.98   
   418. D(H   8,C   2,C   1,C  16)   -102.78 -0.000344    0.07   -102.71   
   419. D(H   8,C   2,C   1,H   7)      0.00 -0.000008    0.00      0.00   
   420. D(C   3,C   2,C   1,C   0)      0.00 -0.000022    0.00      0.00   
   421. D(H   8,C   2,C   1,C  15)    -83.79  0.000088   -0.00    -83.80   
   422. D(H   8,C   2,C   1,C  17)   -102.78 -0.000345    0.07   -102.71   
   423. D(C   3,C   2,C   1,H   7)    180.00 -0.000185    0.02    180.02   
   424. D(H   8,C   2,C   1,C  14)    -66.04  0.000539   -0.08    -66.11   
   425. D(C   3,C   2,C   1,C  14)    113.96  0.000362   -0.05    113.91   
   426. D(C  16,C   2,C   1,C   0)    -77.22  0.000499   -0.09    -77.31   
   427. D(C   3,C   2,C   1,C  16)     77.22 -0.000521    0.10     77.32   
   428. D(C  15,C   2,C   1,C   0)    -96.21  0.000067   -0.02    -96.22   
   429. D(C   3,C   2,C   1,C  15)     96.21 -0.000089    0.02     96.23   
   430. D(C   3,C   2,C   1,C  17)     77.22 -0.000522    0.10     77.32   
   431. D(C  15,C   2,C   1,C  14)     17.75  0.000450   -0.07     17.68   
   432. D(C  15,C   2,C   1,C  17)    -18.99 -0.000433    0.08    -18.91   
   433. D(H   8,C   2,C   1,C  13)    -66.04  0.000537   -0.08    -66.11   
   434. D(C   3,C   2,C   1,C  12)     96.21 -0.000094    0.02     96.23   
   435. D(C  15,C   2,C   1,H   7)     83.79 -0.000096    0.01     83.80   
   436. D(C   4,C   3,C   2,C  17)     65.82 -0.000628    0.10     65.92   
   437. D(H   9,C   3,C   2,C  16)    -96.47 -0.000160    0.02    -96.45   
   438. D(H   9,C   3,C   2,C  13)    -96.47 -0.000061    0.02    -96.45   
   439. D(C  16,C   3,C   2,H   8)     96.47  0.000092   -0.03     96.44   
   440. D(H   9,C   3,C   2,C  14)    -77.47  0.000377   -0.06    -77.53   
   441. D(H   9,C   3,C   2,C  17)   -114.18 -0.000460    0.09   -114.10   
   442. D(C   4,C   3,C   2,H   8)    180.00 -0.000236    0.01    180.01   
   443. D(H   9,C   3,C   2,H   8)      0.00 -0.000069   -0.01     -0.01   
   444. D(C   4,C   3,C   2,C  13)     83.53 -0.000229    0.03     83.56   
   445. D(C   4,C   3,C   2,C   1)      0.00 -0.000059   -0.01     -0.01   
   446. D(C   4,C   3,C   2,C  12)     65.82 -0.000622    0.10     65.92   
   447. D(C  16,C   3,C   2,C   1)    -83.53  0.000269   -0.05    -83.58   
   448. D(C   4,C   3,C   2,C  14)    102.53  0.000209   -0.04    102.49   
   449. D(C   4,C   3,C   2,C  16)     83.53 -0.000328    0.04     83.57   
   450. D(H   9,C   3,C   2,C   1)    180.00  0.000109   -0.03    179.97   
   451. D(H   9,C   3,C   2,C  12)   -114.18 -0.000455    0.08   -114.10   
   452. D(C   4,C   3,C   2,C  15)    102.53  0.000157   -0.05    102.48   
   453. D(C  16,C   3,C   2,C  17)    -17.71 -0.000300    0.06    -17.65   
   454. D(H   9,C   3,C   2,C  15)    -77.47  0.000324   -0.06    -77.53   
   455. D(C  16,C   3,C   2,C  15)     19.00  0.000485   -0.08     18.92   
   456. D(C  16,C   3,C   2,C  14)     19.00  0.000537   -0.08     18.92   
   457. D(H  10,C   4,C   3,C  15)   -102.53  0.000271   -0.04   -102.57   
   458. D(H  10,C   4,C   3,C  17)   -119.16 -0.000079    0.01   -119.15   
   459. D(H  10,C   4,C   3,C  14)   -119.16 -0.000069    0.02   -119.14   
   460. D(C  16,C   4,C   3,H   9)    102.53  0.000051   -0.01    102.52   
   461. D(H  10,C   4,C   3,H   9)      0.00  0.000273   -0.06     -0.06   
   462. D(H  10,C   4,C   3,C  16)   -102.53  0.000222   -0.05   -102.58   
   463. D(C   5,C   4,C   3,C   2)      0.00  0.000041    0.02      0.02   
   464. D(C   5,C   4,C   3,C  15)     77.47 -0.000128    0.05     77.52   
   465. D(C   5,C   4,C   3,C  16)     77.47 -0.000178    0.04     77.51   
   466. D(C   5,C   4,C   3,C  17)     60.84 -0.000478    0.10     60.94   
   467. D(C  16,C   4,C   3,C  17)    -16.63 -0.000300    0.06    -16.57   
   468. D(C   5,C   4,C   3,H   9)    180.00 -0.000127    0.03    180.03   
   469. D(C  16,C   4,C   3,C   2)    -77.47  0.000219   -0.02    -77.50   
   470. D(C   5,C   4,C   3,C  14)     60.84 -0.000469    0.11     60.95   
   471. D(C  16,C   4,C   3,C  15)     -0.00  0.000049    0.00      0.00   
   472. D(H  10,C   4,C   3,C   2)    180.00  0.000440   -0.07    179.93   
   473. D(H  11,C   5,C   4,C  15)   -127.96 -0.000124    0.02   -127.94   
   474. D(C  17,C   5,C   4,C  16)      0.00  0.000004   -0.00     -0.00   
   475. D(H  11,C   5,C   0,C  17)    102.53 -0.000205    0.04    102.57   
   476. D(C  17,C   5,C   4,H  10)    113.96 -0.000079    0.02    113.99   
   477. D(C  17,C   5,C   4,C  15)    -13.99 -0.000190    0.04    -13.96   
   478. D(H  11,C   5,C   4,H  10)      0.00 -0.000013    0.00      0.00   
   479. D(C   4,C   5,C   0,C   1)      0.00 -0.000139    0.00      0.00   
   480. D(C  17,C   5,C   0,H   6)   -102.53 -0.000049    0.01   -102.52   
   481. D(C   4,C   5,C   0,C  13)    -60.84  0.000404   -0.10    -60.94   
   482. D(C   4,C   5,C   0,C  16)    -60.84  0.000423   -0.09    -60.93   
   483. D(H  11,C   5,C   0,C  16)    119.16  0.000095   -0.01    119.14   
   484. D(C  17,C   5,C   0,C  16)     16.63  0.000299   -0.06     16.57   
   485. D(H  11,C   5,C   0,C  12)    102.53 -0.000256    0.04    102.57   
   486. D(C  17,C   5,C   4,C   3)    -66.04  0.000320   -0.07    -66.10   
   487. D(C   0,C   5,C   4,H  10)    180.00 -0.000341    0.08    180.08   
   488. D(C   0,C   5,C   4,C  15)     52.04 -0.000452    0.09     52.13   
   489. D(C   0,C   5,C   4,C  17)     66.04 -0.000262    0.05     66.09   
   490. D(H  11,C   5,C   4,C   3)    180.00  0.000386   -0.09    179.91   
   491. D(H  11,C   5,C   4,C  17)   -113.96  0.000066   -0.02   -113.98   
   492. D(C   0,C   5,C   4,C   3)      0.00  0.000058   -0.01     -0.01   
   493. D(C  17,C   5,C   0,C   1)     77.47 -0.000262    0.03     77.50   
   494. D(C  17,C   5,C   0,C  12)      0.00 -0.000051   -0.00     -0.00   
   495. D(C   4,C   5,C   0,C  12)    -77.47  0.000073   -0.04    -77.51   
   496. D(H  11,C   5,C   0,C   1)    180.00 -0.000467    0.08    180.08   
   497. D(H  11,C   5,C   0,C  13)    119.16  0.000076   -0.02    119.13   
   498. D(C   0,C   5,C   4,C  16)     66.04 -0.000258    0.05     66.09   
   499. D(C   4,C   5,C   0,H   6)    180.00  0.000075   -0.02    179.98   
   500. D(H  11,C   5,C   4,C  16)   -113.96  0.000070   -0.02   -113.98   
   501. D(H  11,C   5,C   0,H   6)      0.00 -0.000254    0.06      0.06   
   502. D(C   4,C   5,C   0,C  17)    -77.47  0.000124   -0.03    -77.50   
   503. D(H  18,C  12,C   0,C  17)   -122.28 -0.000142    0.02   -122.26   
   504. D(C  17,C  12,C   0,C  13)   -115.43  0.000113   -0.04   -115.47   
   505. D(H  18,C  12,C   0,C   5)   -122.28  0.000002    0.04   -122.25   
   506. D(C  13,C  12,C   0,C   1)     -0.00  0.000151    0.01      0.01   
   507. D(C  13,C  12,C   0,C   5)    115.43  0.000031    0.05    115.48   
   508. D(C  17,C  12,C   0,C   1)   -115.43  0.000264   -0.03   -115.46   
   509. D(C  13,C  12,C   0,C  17)    115.43 -0.000113    0.04    115.47   
   510. D(H  18,C  12,C   0,C   1)    122.28  0.000122   -0.01    122.28   
   511. D(C  17,C  12,C   0,H   6)    122.28  0.000087   -0.01    122.28   
   512. D(C  13,C  12,C   0,H   6)   -122.28 -0.000026    0.03   -122.25   
   513. D(H  18,C  12,C   0,H   6)      0.00 -0.000055    0.02      0.02   
   514. D(C  13,C  12,C   0,C  16)     85.53 -0.000038    0.04     85.57   
   515. D(C  17,C  12,C   0,C  16)    -29.90  0.000074    0.00    -29.90   
   516. D(H  18,C  12,C   2,C  14)    147.39 -0.000221    0.03    147.42   
   517. D(C  13,C  12,C   2,C  15)     60.87  0.000201   -0.01     60.86   
   518. D(C  17,C  12,C   0,C   5)     -0.00  0.000144    0.01      0.01   
   519. D(C  17,C  12,C   5,H  11)     71.30  0.000163   -0.02     71.29   
   520. D(C  13,C  12,C   5,C   4)     49.91 -0.000249    0.07     49.98   
   521. D(C   1,C  12,C   5,C   4)     83.28 -0.000290    0.04     83.32   
   522. D(H  18,C  12,C   5,C  16)   -154.04 -0.000155    0.04   -154.00   
   523. D(C  17,C  12,C   1,C  14)    -91.21 -0.000075    0.00    -91.21   
   524. D(H  18,C  12,C   1,C   0)    -59.42  0.000062    0.00    -59.42   
   525. D(H  18,C  12,C   5,C   4)    180.00 -0.000047    0.02    180.02   
   526. D(C   1,C  12,C   5,C   0)    -37.94 -0.000220    0.06    -37.88   
   527. D(C  17,C  12,C   5,C   4)    -58.78  0.000099   -0.00    -58.79   
   528. D(H  18,C  12,C   1,C  13)    120.58 -0.000080   -0.01    120.57   
   529. D(H  18,C  12,C   1,C  16)   -149.39  0.000044    0.01   -149.38   
   530. D(C  17,C  12,C   5,C   0)    180.00  0.000169    0.01    180.01   
   531. D(C  13,C  12,C   5,C  17)    108.70 -0.000347    0.08    108.77   
   532. D(C  17,C  12,C   2,C  16)    -31.33  0.000082    0.00    -31.33   
   533. D(H  18,C  12,C   1,C  14)    149.99 -0.000092    0.00    149.99   
   534. D(C  13,C  12,C   2,C   3)    126.72  0.000278   -0.03    126.69   
   535. D(C  13,C  12,C   5,C   0)    -71.30 -0.000179    0.09    -71.21   
   536. D(H  18,C  12,C   2,C  17)   -114.15  0.000097   -0.02   -114.17   
   537. D(H  18,C  12,C   2,C  16)   -145.48  0.000180   -0.02   -145.50   
   538. D(H  18,C  12,C   2,C  15)    180.00  0.000004    0.00    180.00   
   539. D(H  18,C  12,C   2,C   3)   -114.15  0.000081   -0.02   -114.17   
   540. D(C  17,C  12,C   2,C   1)    114.15 -0.000086    0.03    114.18   
   541. D(H  18,C  12,C   2,H   8)    119.13 -0.000141    0.02    119.15   
   542. D(C  13,C  12,C   1,C  16)     90.03  0.000124    0.01     90.05   
   543. D(C  17,C  12,C   2,C  15)    -65.85 -0.000093    0.03    -65.82   
   544. D(C  13,C  12,C   1,C  14)     29.41 -0.000012    0.01     29.42   
   545. D(C  17,C  12,C   2,C   3)      0.00 -0.000016    0.00      0.00   
   546. D(C  17,C  12,C   1,C   0)     59.37  0.000079   -0.00     59.37   
   547. D(C  13,C  12,C   5,C  16)     75.88 -0.000357    0.09     75.97   
   548. D(C  13,C  12,C   2,C   1)   -119.13  0.000209   -0.01   -119.14   
   549. D(H  18,C  12,C   1,C   2)    180.00  0.000010    0.00    180.00   
   550. D(C  17,C  12,C   2,C  14)    -98.46 -0.000319    0.05    -98.41   
   551. D(C  17,C  12,C   1,C  15)    -61.20  0.000020    0.00    -61.20   
   552. D(H  18,C  12,C   5,C  17)   -121.22 -0.000145    0.02   -121.20   
   553. D(C  17,C  12,C   1,C  16)    -30.59  0.000061    0.00    -30.59   
   554. D(C  17,C  12,C   2,C  13)   -126.72 -0.000294    0.04   -126.68   
   555. D(H  18,C  12,C   2,C   1)      0.00  0.000012    0.00      0.00   
   556. D(C  13,C  12,C   2,C  17)    126.72  0.000294   -0.04    126.68   
   557. D(C   1,C  12,C   0,H   6)   -122.28 -0.000177    0.03   -122.26   
   558. D(C  13,C  12,C   1,C   0)    180.00  0.000142    0.01    180.01   
   559. D(C  13,C  12,C   2,H   8)     -0.00  0.000056    0.01      0.01   
   560. D(C  13,C  12,C   1,H   7)    -59.37  0.000262   -0.00    -59.38   
   561. D(C  13,C  12,C   1,C  15)     59.42  0.000083    0.01     59.43   
   562. D(C  17,C  12,C   1,H   7)   -180.00  0.000199   -0.01   -180.01   
   563. D(H  18,C  12,C   0,C  16)   -152.18 -0.000068    0.03   -152.16   
   564. D(C  13,C  12,C   5,H  11)    180.00 -0.000184    0.06    180.06   
   565. D(C  13,C  12,C   2,C  14)     28.26 -0.000024    0.01     28.27   
   566. D(C  13,C  12,C   1,C  17)    120.63  0.000063    0.01    120.63   
   567. D(C  13,C  12,C   2,C  16)     95.39  0.000377   -0.04     95.35   
   568. D(H  18,C  12,C   1,C  17)   -118.80 -0.000017    0.00   -118.80   
   569. D(H  18,C  12,C   1,H   7)     61.20  0.000182   -0.01     61.19   
   570. D(C  17,C  12,C   5,C  16)    -32.82 -0.000009    0.02    -32.80   
   571. D(H  18,C  12,C   5,H  11)    -49.91  0.000018    0.00    -49.91   
   572. D(H  18,C  12,C   5,C   0)     58.78  0.000023    0.03     58.82   
   573. D(C  13,C  12,C   1,C   2)     59.42  0.000090    0.01     59.43   
   574. D(C  17,C  12,C   1,C   2)    -61.20  0.000027    0.00    -61.20   
   575. D(C  17,C  12,C   2,H   8)   -126.72 -0.000239    0.04   -126.68   
   576. D(C  17,C  12,C   1,C  13)   -120.63 -0.000063   -0.01   -120.63   
   577. D(C   1,C  12,C   0,C   5)    115.43 -0.000120    0.04    115.47   
   578. D(H  18,C  12,C   0,C  13)    122.28 -0.000029   -0.02    122.27   
   579. D(C   1,C  13,C  12,C  17)     77.47 -0.000239    0.03     77.50   
   580. D(H  19,C  13,C  12,C   0)    102.53 -0.000241    0.04    102.57   
   581. D(C  14,C  13,C   1,H   7)   -122.28  0.000024    0.01   -122.27   
   582. D(C  14,C  13,C  12,C   5)    -60.84  0.000457   -0.10    -60.94   
   583. D(H  19,C  13,C   1,C   0)   -115.43  0.000087   -0.01   -115.44   
   584. D(C  14,C  13,C  12,H  18)    180.00  0.000085   -0.02    179.98   
   585. D(H  19,C  13,C   1,C  17)   -147.72 -0.000090    0.01   -147.71   
   586. D(H  19,C  13,C   2,C  15)    145.49 -0.000096    0.03    145.53   
   587. D(H  19,C  13,C   2,H   8)     60.74 -0.000056    0.01     60.75   
   588. D(C  14,C  13,C   2,C  17)     98.44  0.000250   -0.06     98.38   
   589. D(C  12,C  13,C   2,C  15)    -95.25  0.000016    0.04    -95.21   
   590. D(C  14,C  13,C   2,C  16)     65.91  0.000290   -0.04     65.87   
   591. D(C  14,C  13,C   2,C   3)     65.91  0.000141   -0.03     65.87   
   592. D(C  12,C  13,C   2,C  17)    -28.21  0.000124   -0.01    -28.22   
   593. D(C  14,C  13,C   2,C  15)     31.40  0.000142   -0.01     31.39   
   594. D(C  14,C  13,C   2,H   8)    -53.35  0.000181   -0.04    -53.39   
   595. D(C  14,C  13,C   2,C  12)    126.65  0.000126   -0.05    126.60   
   596. D(C  12,C  13,C   2,H   8)    180.00  0.000056    0.01    180.01   
   597. D(C  12,C  13,C   2,C   3)    -60.74  0.000016    0.01    -60.73   
   598. D(C  12,C  13,C   2,C   1)     53.35 -0.000119    0.05     53.40   
   599. D(C  14,C  13,C  12,C  17)      0.00 -0.000074   -0.00     -0.00   
   600. D(H  19,C  13,C   1,H   7)     -0.00 -0.000051    0.02      0.02   
   601. D(H  19,C  13,C   1,C   2)    122.28 -0.000068    0.01    122.30   
   602. D(C  14,C  13,C   1,C  15)     27.82  0.000010    0.02     27.83   
   603. D(C  14,C  13,C   1,C  16)     57.72  0.000004    0.02     57.73   
   604. D(C  14,C  13,C   1,C  17)     90.00 -0.000015   -0.00     90.00   
   605. D(H  19,C  13,C  12,C  17)    180.00 -0.000426    0.08    180.08   
   606. D(C  14,C  13,C  12,C   0)    -77.47  0.000112   -0.03    -77.51   
   607. D(C  14,C  13,C   1,C  12)    122.28  0.000010   -0.02    122.26   
   608. D(C  14,C  13,C  12,C   2)    -60.84  0.000444   -0.09    -60.94   
   609. D(H  19,C  13,C  12,C   2)    119.16  0.000091   -0.01    119.14   
   610. D(C  14,C  13,C  12,C   1)    -77.47  0.000165   -0.03    -77.50   
   611. D(H  19,C  13,C   1,C  12)   -115.43 -0.000064   -0.01   -115.44   
   612. D(H  19,C  13,C   2,C  16)    180.00  0.000052    0.00    180.00   
   613. D(H  19,C  13,C  12,C   1)    102.53 -0.000187    0.05    102.57   
   614. D(C  14,C  13,C   1,C   2)      0.00  0.000006    0.00      0.00   
   615. D(C  14,C  13,C   1,C   0)    122.28  0.000162   -0.02    122.27   
   616. D(H  19,C  13,C  12,C   5)    119.16  0.000104   -0.02    119.14   
   617. D(C  12,C  13,C   2,C  16)    -60.74  0.000164    0.01    -60.73   
   618. D(C  12,C  13,C   2,C  14)   -126.65 -0.000126    0.05   -126.60   
   619. D(C  12,C  13,C   1,C  15)    -94.47  0.000000    0.04    -94.43   
   620. D(C  14,C  13,C   2,C   1)    180.00  0.000007    0.00    180.00   
   621. D(C  12,C  13,C   1,C  14)   -122.28 -0.000010    0.02   -122.26   
   622. D(H  19,C  13,C  12,H  18)      0.00 -0.000267    0.06      0.06   
   623. D(C  12,C  13,C   1,C  17)    -32.28 -0.000026    0.02    -32.27   
   624. D(H  19,C  13,C   0,C  12)   -108.70  0.000021   -0.03   -108.73   
   625. D(H  19,C  13,C   0,C   1)     71.30  0.000199   -0.02     71.28   
   626. D(H  19,C  13,C   2,C   1)    -65.91 -0.000231    0.04    -65.86   
   627. D(C  14,C  13,C   0,H   6)    180.00 -0.000053    0.01    180.01   
   628. D(C  14,C  13,C   0,C   1)    -58.78  0.000131   -0.01    -58.79   
   629. D(C  12,C  13,C   0,C  16)    -71.30 -0.000198    0.08    -71.23   
   630. D(C  12,C  13,C   0,C  17)    -37.94 -0.000220    0.06    -37.88   
   631. D(H  19,C  13,C   2,C   3)    180.00 -0.000096    0.01    180.01   
   632. D(C  12,C  13,C   0,H   6)     58.78 -0.000006    0.03     58.82   
   633. D(C  12,C  13,C   0,C   5)    -71.30 -0.000167    0.09    -71.21   
   634. D(C  12,C  13,C   0,C   1)    180.00  0.000177    0.01    180.01   
   635. D(C  14,C  13,C   0,C  17)     83.28 -0.000266    0.04     83.32   
   636. D(C  14,C  13,C   0,C   5)     49.91 -0.000213    0.07     49.99   
   637. D(H  19,C  13,C   0,H   6)    -49.91  0.000015    0.00    -49.91   
   638. D(C  14,C  13,C   0,C  16)     49.91 -0.000244    0.06     49.97   
   639. D(C  12,C  13,C   1,C  16)    -64.57 -0.000006    0.04    -64.53   
   640. D(H  19,C  13,C   0,C  17)   -146.63 -0.000198    0.03   -146.61   
   641. D(C  12,C  13,C   1,C   0)     -0.00  0.000151    0.01      0.01   
   642. D(C  12,C  13,C   1,C   2)   -122.28 -0.000004    0.02   -122.26   
   643. D(C  12,C  13,C   1,H   7)    115.43  0.000013    0.04    115.47   
   644. D(C  14,C  13,C   0,C  12)    121.22 -0.000047   -0.02    121.20   
   645. D(C   1,C  13,C  12,C   2)     16.63  0.000279   -0.06     16.57   
   646. D(C   1,C  13,C  12,C   0)      0.00 -0.000054   -0.00     -0.00   
   647. D(C   1,C  13,C  12,H  18)   -102.53 -0.000080    0.01   -102.52   
   648. D(H  19,C  13,C   0,C   5)    180.00 -0.000146    0.06    180.06   
   649. D(H  20,C  14,C   2,C  15)    115.43  0.000057    0.01    115.44   
   650. D(C  13,C  14,C   3,C   4)    -49.91  0.000237   -0.07    -49.99   
   651. D(C  15,C  14,C   3,C  17)     71.30  0.000215   -0.08     71.22   
   652. D(H  20,C  14,C   3,C  16)    146.63  0.000199   -0.03    146.61   
   653. D(C  15,C  14,C  13,C   0)    -52.04  0.000493   -0.10    -52.14   
   654. D(C   2,C  14,C  13,C  12)     66.04 -0.000292    0.06     66.09   
   655. D(C   2,C  14,C  13,H  19)   -113.96  0.000060   -0.02   -113.98   
   656. D(C   2,C  14,C  13,C   0)     13.99  0.000191   -0.04     13.96   
   657. D(H  20,C  14,C  13,C   0)    127.96  0.000127   -0.02    127.94   
   658. D(C   2,C  14,C  13,C   1)      0.00 -0.000002   -0.00     -0.00   
   659. D(H  20,C  14,C  13,C   2)    113.96 -0.000064    0.02    113.98   
   660. D(H  20,C  14,C  13,C   1)    113.96 -0.000066    0.02    113.98   
   661. D(H  20,C  14,C  13,C  12)    180.00 -0.000356    0.08    180.08   
   662. D(C  15,C  14,C  13,C   2)    -66.04  0.000302   -0.06    -66.10   
   663. D(C  15,C  14,C  13,H  19)    180.00  0.000362   -0.08    179.92   
   664. D(C  15,C  14,C  13,C  12)      0.00  0.000009   -0.00     -0.00   
   665. D(H  20,C  14,C   3,C  15)    108.70 -0.000035    0.03    108.73   
   666. D(H  20,C  14,C   3,H   9)     49.91 -0.000005   -0.01     49.91   
   667. D(H  20,C  14,C   3,C   4)   -180.00  0.000165   -0.06   -180.06   
   668. D(H  20,C  14,C   3,C   2)    -71.30 -0.000208    0.02    -71.28   
   669. D(C  15,C  14,C   3,C  16)     37.94  0.000234   -0.06     37.88   
   670. D(C  15,C  14,C   3,H   9)    -58.78  0.000030   -0.04    -58.82   
   671. D(C  15,C  14,C   3,C   4)     71.30  0.000200   -0.10     71.21   
   672. D(C  13,C  14,C   3,C  17)    -49.91  0.000253   -0.06    -49.97   
   673. D(C  13,C  14,C   3,C  15)   -121.22  0.000038    0.02   -121.20   
   674. D(C  13,C  14,C   3,C  16)    -83.28  0.000271   -0.04    -83.32   
   675. D(C  13,C  14,C   3,H   9)    180.00  0.000068   -0.02    179.98   
   676. D(C  13,C  14,C   3,C   2)     58.78 -0.000136    0.01     58.79   
   677. D(H  20,C  14,C   2,C  16)    147.72  0.000092   -0.01    147.71   
   678. D(H  20,C  14,C   2,H   8)      0.00  0.000053   -0.02     -0.02   
   679. D(H  20,C  14,C   2,C   3)    115.43 -0.000092    0.01    115.44   
   680. D(H  20,C  14,C   2,C   1)   -122.28  0.000077   -0.01   -122.30   
   681. D(C  15,C  14,C   2,C  12)     94.47  0.000003   -0.04     94.43   
   682. D(C  15,C  14,C   2,C  13)    122.28  0.000014   -0.03    122.26   
   683. D(C  15,C  14,C   2,C  17)     64.57  0.000017   -0.04     64.53   
   684. D(C  15,C  14,C   2,C  16)     32.28  0.000035   -0.02     32.26   
   685. D(C  15,C  14,C   2,H   8)   -115.43 -0.000003   -0.04   -115.47   
   686. D(C  15,C  14,C   2,C   3)      0.00 -0.000148   -0.01     -0.01   
   687. D(C  15,C  14,C   2,C   1)    122.28  0.000021   -0.03    122.26   
   688. D(C  13,C  14,C   2,C  12)    -27.82 -0.000011   -0.01    -27.83   
   689. D(C  13,C  14,C   2,C  16)    -90.00  0.000021    0.01    -89.99   
   690. D(C  13,C  14,C   2,H   8)    122.28 -0.000018   -0.01    122.27   
   691. D(C  13,C  14,C   1,C  17)    -65.91 -0.000286    0.04    -65.87   
   692. D(C  15,C  14,C   3,C   2)   -180.00 -0.000174   -0.01   -180.01   
   693. D(H  20,C  14,C   1,C  12)   -145.49  0.000090   -0.03   -145.53   
   694. D(C  15,C  14,C   1,C   2)    -53.35  0.000134   -0.05    -53.40   
   695. D(H  20,C  14,C   1,C   0)   -180.00  0.000086   -0.01   -180.01   
   696. D(C  15,C  14,C   1,C  16)     28.21 -0.000115    0.01     28.22   
   697. D(C  15,C  14,C   1,C  17)     60.74 -0.000159   -0.01     60.73   
   698. D(C  15,C  14,C   1,C  12)     95.25 -0.000019   -0.04     95.21   
   699. D(C  15,C  14,C   1,H   7)   -180.00 -0.000049   -0.01   -180.01   
   700. D(C  15,C  14,C   1,C  13)    126.65  0.000127   -0.05    126.60   
   701. D(H  20,C  14,C   1,C   2)     65.91  0.000242   -0.04     65.86   
   702. D(C  15,C  14,C   1,C   0)     60.74 -0.000023   -0.01     60.73   
   703. D(H  20,C  14,C   1,H   7)    -60.74  0.000060   -0.01    -60.75   
   704. D(C  15,C  14,C  13,C   1)    -66.04  0.000299   -0.06    -66.10   
   705. D(C  13,C  14,C   1,C  15)   -126.65 -0.000127    0.05   -126.60   
   706. D(C  13,C  14,C   1,C  16)    -98.44 -0.000242    0.06    -98.38   
   707. D(C  13,C  14,C   2,C   3)   -122.28 -0.000162    0.02   -122.27   
   708. D(H  20,C  14,C  13,H  19)      0.00 -0.000004   -0.00     -0.00   
   709. D(C  13,C  14,C   1,C  12)    -31.40 -0.000146    0.01    -31.39   
   710. D(C  13,C  14,C   1,H   7)     53.35 -0.000176    0.04     53.39   
   711. D(C  13,C  14,C   1,C   2)    180.00  0.000007    0.00    180.00   
   712. D(C  13,C  14,C   2,C  15)   -122.28 -0.000014    0.03   -122.26   
   713. D(C  13,C  14,C   2,C   1)      0.00  0.000006    0.00      0.00   
   714. D(C  13,C  14,C   1,C   0)    -65.91 -0.000150    0.04    -65.87   
   715. D(C  13,C  14,C   2,C  17)    -57.72  0.000002   -0.02    -57.73   
   716. D(H  20,C  14,C   1,C  17)   -180.00 -0.000051   -0.01   -180.01   
   717. D(C   3,C  15,C  14,H  20)   -102.53  0.000229   -0.04   -102.57   
   718. D(C   3,C  15,C  14,C  13)     77.47 -0.000137    0.04     77.51   
   719. D(C   2,C  15,C  14,C   3)      0.00 -0.000052   -0.00     -0.00   
   720. D(C   2,C  15,C  14,H  20)   -102.53  0.000176   -0.04   -102.57   
   721. D(C   2,C  15,C  14,C  13)     77.47 -0.000189    0.04     77.51   
   722. D(H  21,C  15,C  14,C   3)    102.53  0.000022   -0.01    102.52   
   723. D(H  21,C  15,C  14,C   2)    102.53  0.000074   -0.01    102.52   
   724. D(H  21,C  15,C  14,H  20)      0.00  0.000251   -0.05     -0.05   
   725. D(H  21,C  15,C  14,C  13)    180.00 -0.000115    0.03    180.03   
   726. D(C  16,C  15,C  14,C   1)    -60.84  0.000516   -0.09    -60.93   
   727. D(C  16,C  15,C  14,C   2)    -77.47  0.000242   -0.03    -77.50   
   728. D(C  16,C  15,C  14,H  20)    180.00  0.000419   -0.07    179.93   
   729. D(C  16,C  15,C  14,C  13)      0.00  0.000053    0.01      0.01   
   730. D(C   2,C  15,C   4,C   5)    -83.28  0.000285   -0.04    -83.32   
   731. D(C   2,C  15,C   4,C   3)     37.94  0.000243   -0.06     37.88   
   732. D(H  21,C  15,C   4,C  17)    154.04  0.000168   -0.04    154.00   
   733. D(H  21,C  15,C   4,H  10)     49.91 -0.000007   -0.01     49.91   
   734. D(H  21,C  15,C   4,C   5)    180.00  0.000038   -0.01    179.99   
   735. D(H  21,C  15,C   4,C   3)    -58.78 -0.000004   -0.04    -58.82   
   736. D(C  16,C  15,C   4,H  10)    -71.30 -0.000166    0.02    -71.28   
   737. D(C  16,C  15,C   4,C   5)     58.78 -0.000121    0.01     58.79   
   738. D(C  16,C  15,C   4,C   3)   -180.00 -0.000164   -0.02   -180.02   
   739. D(C  14,C  15,C   4,C  16)   -108.70  0.000358   -0.08   -108.78   
   740. D(C  14,C  15,C   4,H  10)   -180.00  0.000192   -0.06   -180.06   
   741. D(C  14,C  15,C   4,C   5)    -49.91  0.000237   -0.07    -49.98   
   742. D(C  14,C  15,C   4,C   3)     71.30  0.000194   -0.09     71.21   
   743. D(C   2,C  15,C   3,H   9)    122.28  0.000194   -0.03    122.25   
   744. D(C   2,C  15,C   3,C   4)   -115.43  0.000135   -0.05   -115.48   
   745. D(H  21,C  15,C   3,C  14)   -122.28  0.000027    0.02   -122.27   
   746. D(H  21,C  15,C   3,C  16)    122.28  0.000154   -0.03    122.26   
   747. D(H  21,C  15,C   3,H   9)      0.00  0.000073   -0.02     -0.02   
   748. D(H  21,C  15,C   3,C   4)    122.28  0.000014   -0.04    122.24   
   749. D(C  16,C  15,C   3,C  14)    115.43 -0.000127    0.04    115.47   
   750. D(C  16,C  15,C   3,C  17)     29.90 -0.000075   -0.00     29.90   
   751. D(C  16,C  15,C   3,H   9)   -122.28 -0.000081    0.00   -122.28   
   752. D(C  16,C  15,C   3,C   2)    115.43 -0.000275    0.03    115.46   
   753. D(C  14,C  15,C   3,C  17)    -85.53  0.000051   -0.04    -85.57   
   754. D(C  14,C  15,C   3,C  16)   -115.43  0.000127   -0.04   -115.47   
   755. D(C  14,C  15,C   3,H   9)    122.28  0.000046   -0.04    122.24   
   756. D(C  14,C  15,C   3,C   4)   -115.43 -0.000013   -0.06   -115.49   
   757. D(C  14,C  15,C   3,C   2)      0.00 -0.000148   -0.01     -0.01   
   758. D(H  21,C  15,C   2,C  13)   -149.99  0.000089   -0.00   -149.99   
   759. D(H  21,C  15,C   2,H   8)    -61.20 -0.000176    0.01    -61.19   
   760. D(C  16,C  15,C   2,C  13)     91.21  0.000064   -0.00     91.21   
   761. D(C  16,C  15,C   2,C   3)    -59.37 -0.000086    0.00    -59.37   
   762. D(C  14,C  15,C   2,C  13)    -29.41  0.000012   -0.01    -29.42   
   763. D(C  14,C  15,C   2,C  17)    -90.03 -0.000118   -0.01    -90.05   
   764. D(C  16,C  15,C   3,C   4)      0.00 -0.000140   -0.01     -0.01   
   765. D(C  14,C  15,C   2,C   1)    -59.42 -0.000077   -0.01    -59.44   
   766. D(H  21,C  15,C   1,C  12)    180.00 -0.000008   -0.01    179.99   
   767. D(C  16,C  15,C   1,C  14)    126.72  0.000284   -0.03    126.69   
   768. D(H  21,C  15,C   3,C   2)   -122.28 -0.000121    0.01   -122.28   
   769. D(C  16,C  15,C   1,C  12)     65.85  0.000081   -0.02     65.83   
   770. D(C  16,C  15,C   1,H   7)    126.72  0.000235   -0.04    126.68   
   771. D(C  14,C  15,C   1,C  13)    -28.26  0.000025   -0.01    -28.27   
   772. D(H  21,C  15,C   3,C  17)    152.18  0.000078   -0.03    152.16   
   773. D(C  14,C  15,C   1,C   2)    119.13 -0.000195    0.01    119.14   
   774. D(C  14,C  15,C   1,C   0)   -126.72 -0.000291    0.03   -126.69   
   775. D(C  14,C  15,C   1,C  17)    -95.39 -0.000374    0.03    -95.35   
   776. D(C  16,C  15,C   1,C   0)      0.00 -0.000008    0.00      0.00   
   777. D(C  14,C  15,C   1,C  16)   -126.72 -0.000284    0.03   -126.69   
   778. D(C  14,C  15,C   1,C  12)    -60.87 -0.000203    0.01    -60.86   
   779. D(C  16,C  15,C   1,C  17)     31.33 -0.000090    0.00     31.33   
   780. D(C  14,C  15,C   4,C  17)    -75.88  0.000366   -0.10    -75.97   
   781. D(C  16,C  15,C   1,C   2)   -114.15  0.000089   -0.02   -114.18   
   782. D(H  21,C  15,C   1,C   2)      0.00 -0.000000   -0.01     -0.01   
   783. D(H  21,C  15,C   1,C   0)    114.15 -0.000097    0.02    114.17   
   784. D(C  16,C  15,C   4,C  17)     32.82  0.000009   -0.02     32.80   
   785. D(H  21,C  15,C   1,H   7)   -119.13  0.000146   -0.02   -119.15   
   786. D(H  21,C  15,C   1,C  13)   -147.39  0.000220   -0.03   -147.42   
   787. D(H  21,C  15,C   1,C  16)    114.15 -0.000089    0.02    114.17   
   788. D(H  21,C  15,C   4,C  16)    121.22  0.000159   -0.02    121.19   
   789. D(H  21,C  15,C   1,C  17)    145.48 -0.000179    0.02    145.50   
   790. D(C  16,C  15,C   1,C  13)     98.46  0.000309   -0.05     98.41   
   791. D(C  14,C  15,C   1,H   7)      0.00 -0.000049   -0.01     -0.01   
   792. D(C  14,C  15,C   2,C  16)   -120.63 -0.000052   -0.01   -120.64   
   793. D(C  14,C  15,C   2,C  12)    -59.42 -0.000083   -0.01    -59.43   
   794. D(C  14,C  15,C   2,H   8)     59.37 -0.000253    0.00     59.38   
   795. D(C  16,C  15,C   2,H   8)    180.00 -0.000201    0.01    180.01   
   796. D(C  16,C  15,C  14,C   3)    -77.47  0.000190   -0.03    -77.50   
   797. D(C  16,C  15,C   2,C   1)     61.20 -0.000024   -0.00     61.20   
   798. D(C  16,C  15,C   2,C  14)    120.63  0.000052    0.01    120.64   
   799. D(C  14,C  15,C   2,C   3)   -180.00 -0.000139   -0.01   -180.01   
   800. D(H  21,C  15,C  14,C   1)    119.16  0.000348   -0.07    119.09   
   801. D(C  16,C  15,C   2,C  12)     61.20 -0.000031   -0.00     61.20   
   802. D(H  21,C  15,C   2,C   1)    180.00 -0.000000   -0.01    179.99   
   803. D(H  21,C  15,C   2,C   3)     59.42 -0.000062   -0.00     59.42   
   804. D(C   2,C  15,C  14,C   1)     16.63  0.000274   -0.06     16.57   
   805. D(H  21,C  15,C   2,C  14)   -120.58  0.000076    0.01   -120.57   
   806. D(H  21,C  15,C   2,C  17)    149.39 -0.000041   -0.01    149.38   
   807. D(H  21,C  15,C   2,C  16)    118.80  0.000024   -0.00    118.79   
   808. D(C  16,C  15,C   2,C  17)     30.59 -0.000065   -0.00     30.59   
   809. D(C  15,C  16,C   4,C   5)   -122.28 -0.000152    0.02   -122.27   
   810. D(C  15,C  16,C   4,C   3)      0.00 -0.000140   -0.01     -0.01   
   811. D(C   2,C  16,C   3,C  14)     29.98  0.000079    0.00     29.98   
   812. D(C   2,C  16,C   3,C  15)     59.37  0.000091   -0.00     59.37   
   813. D(C   2,C  16,C   3,H   9)    118.80  0.000062   -0.01    118.79   
   814. D(C   2,C  16,C   3,C   4)   -120.63 -0.000040   -0.02   -120.64   
   815. D(H  22,C  16,C   3,C  17)    118.80 -0.000146    0.01    118.81   
   816. D(H  22,C  16,C   3,C  15)   -120.63 -0.000100    0.01   -120.62   
   817. D(H  22,C  16,C   3,H   9)    -61.20 -0.000128    0.01    -61.20   
   818. D(H  22,C  16,C   3,C   4)     59.37 -0.000230   -0.00     59.37   
   819. D(H  22,C  16,C   3,C   2)    180.00 -0.000191    0.01    180.01   
   820. D(C  17,C  16,C   3,C  14)     91.18  0.000034    0.00     91.18   
   821. D(C  17,C  16,C   3,C  15)    120.58  0.000046   -0.00    120.58   
   822. D(C  17,C  16,C   3,C   4)    -59.42 -0.000085   -0.01    -59.44   
   823. D(C  17,C  16,C   3,C   2)     61.20 -0.000045    0.00     61.20   
   824. D(C  15,C  16,C   3,C  14)    -29.40 -0.000012    0.01    -29.39   
   825. D(C  15,C  16,C   3,H   9)     59.42 -0.000029   -0.00     59.42   
   826. D(C  15,C  16,C   3,C   4)   -180.00 -0.000131   -0.01   -180.01   
   827. D(C  15,C  16,C   3,C   2)    -59.37 -0.000091    0.00    -59.37   
   828. D(C   3,C  16,C   2,C   1)    120.63  0.000131   -0.02    120.61   
   829. D(H  22,C  16,C   2,C  12)    150.01 -0.000109    0.01    150.02   
   830. D(H  22,C  16,C   2,C  13)    180.00 -0.000060    0.01    180.01   
   831. D(H  22,C  16,C   2,C  17)    120.63 -0.000063   -0.00    120.62   
   832. D(H  22,C  16,C   2,C  14)   -149.37 -0.000027    0.00   -149.37   
   833. D(H  22,C  16,C   2,C  15)   -118.75  0.000061   -0.02   -118.77   
   834. D(H  22,C  16,C   2,H   8)   -118.75 -0.000140   -0.01   -118.75   
   835. D(H  22,C  16,C   2,C   1)    120.63 -0.000060   -0.00    120.62   
   836. D(C  17,C  16,C   2,C  12)     29.38 -0.000046    0.02     29.40   
   837. D(C  17,C  16,C   2,C  13)     59.37  0.000003    0.01     59.39   
   838. D(C  17,C  16,C   2,C  15)    120.63  0.000124   -0.02    120.61   
   839. D(C  17,C  16,C   2,H   8)    120.63 -0.000077   -0.00    120.62   
   840. D(C  17,C  16,C   2,C   3)   -120.63 -0.000128    0.02   -120.61   
   841. D(C  15,C  16,C   2,C  12)    -91.24 -0.000170    0.03    -91.21   
   842. D(C  15,C  16,C   2,C  13)    -61.25 -0.000121    0.03    -61.22   
   843. D(C  15,C  16,C   2,C  17)   -120.63 -0.000124    0.02   -120.61   
   844. D(C  15,C  16,C   2,C  14)    -30.63 -0.000088    0.02    -30.61   
   845. D(C  15,C  16,C   2,H   8)     -0.00 -0.000201    0.01      0.01   
   846. D(C  15,C  16,C   2,C   3)    118.75 -0.000252    0.03    118.78   
   847. D(C  15,C  16,C   2,C   1)   -120.63 -0.000121    0.01   -120.61   
   848. D(C   3,C  16,C   1,C   2)    -32.31 -0.000114    0.01    -32.30   
   849. D(C   3,C  16,C   1,C   0)     90.06  0.000126   -0.03     90.03   
   850. D(H  22,C  16,C   1,C  15)   -122.28 -0.000042    0.01   -122.28   
   851. D(H  22,C  16,C   1,C  14)   -150.07  0.000022    0.00   -150.07   
   852. D(H  22,C  16,C   1,C  13)    180.00  0.000006    0.00    180.00   
   853. D(H  22,C  16,C   1,C  17)    115.34 -0.000291    0.05    115.39   
   854. D(H  22,C  16,C   1,C  12)    147.65 -0.000199    0.03    147.69   
   855. D(H  22,C  16,C   1,H   7)   -180.00  0.000026   -0.00   -180.00   
   856. D(H  22,C  16,C   1,C   2)    -64.66 -0.000288    0.05    -64.61   
   857. D(H  22,C  16,C   1,C   0)     57.72 -0.000049    0.01     57.72   
   858. D(C  17,C  16,C   1,C  15)    122.37  0.000249   -0.04    122.33   
   859. D(C  17,C  16,C   1,C  14)     94.59  0.000313   -0.05     94.54   
   860. D(C  17,C  16,C   2,C   1)      0.00  0.000003   -0.00     -0.00   
   861. D(C  17,C  16,C   1,C  13)     64.66  0.000297   -0.04     64.62   
   862. D(C  17,C  16,C   1,C  12)     32.31  0.000093   -0.01     32.30   
   863. D(C  17,C  16,C   1,H   7)     64.66  0.000317   -0.05     64.61   
   864. D(C  17,C  16,C   2,C  14)     90.00  0.000036    0.01     90.01   
   865. D(C  17,C  16,C   1,C   2)    180.00  0.000003   -0.00    180.00   
   866. D(C  17,C  16,C   1,C   0)    -57.63  0.000242   -0.04    -57.66   
   867. D(C  15,C  16,C   1,C  14)    -27.79  0.000063   -0.01    -27.79   
   868. D(H  22,C  16,C   2,C   3)     -0.00 -0.000191    0.01      0.01   
   869. D(C  15,C  16,C   1,C  13)    -57.72  0.000048   -0.00    -57.72   
   870. D(C  15,C  16,C   1,C  17)   -122.37 -0.000249    0.04   -122.33   
   871. D(C  15,C  16,C   1,C  12)    -90.06 -0.000157    0.03    -90.03   
   872. D(C  15,C  16,C   1,H   7)    -57.72  0.000068   -0.01    -57.72   
   873. D(C  15,C  16,C   1,C   2)     57.63 -0.000246    0.04     57.66   
   874. D(C  15,C  16,C   1,C   0)    180.00 -0.000007    0.00    180.00   
   875. D(C   3,C  16,C   0,C  17)    180.00 -0.000003    0.00    180.00   
   876. D(C   3,C  16,C   2,H   8)   -118.75  0.000051   -0.02   -118.77   
   877. D(C   3,C  16,C   0,H   6)    180.00 -0.000022    0.01    180.01   
   878. D(C   3,C  16,C   0,C   5)     60.87  0.000213   -0.01     60.86   
   879. D(C   3,C  16,C   0,C   1)    -65.85 -0.000097    0.02    -65.82   
   880. D(C  15,C  16,C   3,C  17)   -120.58 -0.000046    0.00   -120.58   
   881. D(H  22,C  16,C   0,C  13)    180.00  0.000062   -0.00    180.00   
   882. D(H  22,C  16,C   0,C  12)    151.74  0.000026   -0.00    151.74   
   883. D(H  22,C  16,C   0,C  17)    119.13 -0.000125    0.02    119.15   
   884. D(C  17,C  16,C   3,H   9)    180.00  0.000017   -0.01    179.99   
   885. D(H  22,C  16,C   0,H   6)    119.13 -0.000144    0.02    119.15   
   886. D(H  22,C  16,C   0,C   5)     -0.00  0.000090    0.01      0.01   
   887. D(H  22,C  16,C   0,C   1)   -126.72 -0.000219    0.04   -126.68   
   888. D(C  17,C  16,C   0,C  13)     60.87  0.000188   -0.02     60.85   
   889. D(C  17,C  16,C   0,C  12)     32.61  0.000151   -0.02     32.59   
   890. D(C  17,C  16,C   0,H   6)      0.00 -0.000019    0.01      0.01   
   891. D(C  17,C  16,C   0,C   5)   -119.13  0.000216   -0.01   -119.14   
   892. D(H  22,C  16,C   3,C  14)   -150.02 -0.000112    0.02   -150.01   
   893. D(C  17,C  16,C   0,C   1)    114.15 -0.000094    0.02    114.18   
   894. D(C  15,C  16,C   0,C  13)    -53.28  0.000274   -0.04    -53.32   
   895. D(C  15,C  16,C   0,C  12)    -81.54  0.000238   -0.05    -81.58   
   896. D(C   2,C  16,C   3,C  17)    -61.20  0.000045   -0.00    -61.20   
   897. D(C  15,C  16,C   0,C  17)   -114.15  0.000086   -0.02   -114.17   
   898. D(C  15,C  16,C   0,H   6)   -114.15  0.000067   -0.02   -114.17   
   899. D(C  15,C  16,C   0,C   5)    126.72  0.000302   -0.03    126.69   
   900. D(C  15,C  16,C   4,H  10)    115.43 -0.000061    0.00    115.43   
   901. D(C  15,C  16,C   0,C   1)      0.00 -0.000008    0.00      0.00   
   902. D(C   2,C  16,C  15,C   3)    -19.00 -0.000489    0.08    -18.92   
   903. D(C   2,C  16,C  15,H  21)    -96.47 -0.000192    0.03    -96.45   
   904. D(C   2,C  16,C  15,C  14)     83.53 -0.000360    0.04     83.57   
   905. D(C   3,C  16,C  15,C   4)      0.00 -0.000049   -0.00     -0.00   
   906. D(C   3,C  16,C  15,C   1)     36.71  0.000764   -0.15     36.56   
   907. D(C   3,C  16,C  15,C   2)     19.00  0.000489   -0.08     18.92   
   908. D(C   3,C  16,C  15,H  21)    -77.47  0.000297   -0.06    -77.53   
   909. D(H  22,C  16,C  15,C   4)     77.47 -0.000427    0.05     77.52   
   910. D(H  22,C  16,C  15,C   1)    114.18  0.000387   -0.09    114.09   
   911. D(H  22,C  16,C  15,C   3)     77.47 -0.000378    0.06     77.53   
   912. D(H  22,C  16,C  15,H  21)      0.00 -0.000080   -0.00     -0.00   
   913. D(H  22,C  16,C  15,C  14)    180.00 -0.000248    0.02    180.02   
   914. D(C  17,C  16,C  15,C   4)   -102.53 -0.000229    0.03   -102.50   
   915. D(C  17,C  16,C  15,C   3)   -102.53 -0.000180    0.03   -102.50   
   916. D(C  17,C  16,C  15,C   2)    -83.53  0.000309   -0.05    -83.58   
   917. D(C  17,C  16,C  15,H  21)    180.00  0.000117   -0.03    179.97   
   918. D(C  17,C  16,C  15,C  14)      0.00 -0.000051   -0.01     -0.01   
   919. D(C   3,C  16,C   5,C  12)   -121.27  0.000099    0.01   -121.26   
   920. D(C   3,C  16,C   5,C  17)   -148.60  0.000175   -0.01   -148.61   
   921. D(C   3,C  16,C   5,H  11)    145.49 -0.000083    0.04    145.53   
   922. D(C   3,C  16,C   5,C   0)    -95.25  0.000057    0.04    -95.21   
   923. D(H  22,C  16,C   5,C  12)    153.98  0.000133   -0.02    153.95   
   924. D(H  22,C  16,C   5,C  17)    126.65  0.000208   -0.04    126.61   
   925. D(H  22,C  16,C   5,H  11)     60.74 -0.000050    0.01     60.75   
   926. D(H  22,C  16,C   5,C   4)    -53.35  0.000197   -0.04    -53.39   
   927. D(H  22,C  16,C   5,C   0)    180.00  0.000090    0.01    180.01   
   928. D(C  17,C  16,C   5,C  12)     27.33 -0.000076    0.02     27.35   
   929. D(C  17,C  16,C   5,H  11)    -65.91 -0.000258    0.05    -65.86   
   930. D(C  17,C  16,C   5,C   4)    180.00 -0.000012    0.00    180.00   
   931. D(C  17,C  16,C   5,C   0)     53.35 -0.000118    0.05     53.40   
   932. D(C   3,C  16,C   5,C   4)     31.40  0.000163   -0.01     31.39   
   933. D(C  15,C  16,C   5,C  12)    -86.76  0.000082   -0.02    -86.78   
   934. D(C  15,C  16,C   5,C  17)   -114.09  0.000158   -0.04   -114.13   
   935. D(C  15,C  16,C   5,H  11)    180.00 -0.000100    0.01    180.01   
   936. D(C  15,C  16,C   5,C   4)     65.91  0.000146   -0.04     65.87   
   937. D(C  15,C  16,C   5,C   0)    -60.74  0.000039    0.01    -60.73   
   938. D(C   2,C  16,C   4,C   5)    -90.00  0.000031    0.01    -89.99   
   939. D(C   2,C  16,C   4,C   3)     32.28  0.000044   -0.02     32.26   
   940. D(C  17,C  16,C  15,C   1)    -65.82  0.000584   -0.12    -65.93   
   941. D(C   3,C  16,C   4,C  15)      0.00  0.000140    0.01      0.01   
   942. D(C   3,C  16,C   4,C  17)   -122.28 -0.000002    0.03   -122.26   
   943. D(C   3,C  16,C   4,H  10)    115.43  0.000079    0.02    115.45   
   944. D(H  22,C  16,C  15,C   2)     96.47  0.000111   -0.03     96.44   
   945. D(C   3,C  16,C   4,C   5)   -122.28 -0.000013    0.03   -122.26   
   946. D(H  22,C  16,C   4,C  15)   -115.43  0.000158   -0.03   -115.46   
   947. D(H  22,C  16,C   4,C  17)    122.28  0.000017   -0.01    122.27   
   948. D(C   3,C  16,C  15,C  14)    102.53  0.000129   -0.04    102.49   
   949. D(H  22,C  16,C   4,H  10)      0.00  0.000098   -0.02     -0.02   
   950. D(H  22,C  16,C   4,C   5)    122.28  0.000006   -0.01    122.27   
   951. D(H  22,C  16,C   4,C   3)   -115.43  0.000019   -0.04   -115.47   
   952. D(C  17,C  16,C   4,C  15)    122.28  0.000141   -0.01    122.27   
   953. D(C  17,C  16,C   4,H  10)   -122.28  0.000081   -0.01   -122.30   
   954. D(C  17,C  16,C   4,C   5)      0.00 -0.000011    0.00      0.00   
   955. D(C  17,C  16,C   4,C   3)    122.28  0.000002   -0.03    122.26   
   956. D(C   2,C  16,C  15,C   1)     17.71  0.000275   -0.06     17.65   
   957. D(C  15,C  16,C   4,C  17)   -122.28 -0.000141    0.01   -122.27   
   958. D(C   1,C  17,C  16,C  15)     77.22 -0.000530    0.10     77.31   
   959. D(C   0,C  17,C  16,C   5)    -17.75 -0.000460    0.07    -17.68   
   960. D(C   0,C  17,C  16,C   1)     18.99  0.000432   -0.08     18.91   
   961. D(C   0,C  17,C  16,C   4)    -17.75 -0.000456    0.07    -17.68   
   962. D(C   0,C  17,C  16,C   2)     18.99  0.000431   -0.08     18.91   
   963. D(C   0,C  17,C  16,H  22)    -83.79  0.000099   -0.00    -83.80   
   964. D(C   0,C  17,C  16,C  15)     96.21 -0.000098    0.02     96.23   
   965. D(H  23,C  17,C  16,C   0)     83.79 -0.000076    0.00     83.79   
   966. D(H  23,C  17,C  16,C   1)    102.78  0.000355   -0.07    102.71   
   967. D(H  23,C  17,C  16,C   4)     66.04 -0.000533    0.07     66.11   
   968. D(H  23,C  17,C  16,C   2)    102.78  0.000354   -0.07    102.71   
   969. D(H  23,C  17,C  16,H  22)      0.00  0.000023   -0.00     -0.00   
   970. D(H  23,C  17,C  16,C  15)    180.00 -0.000175    0.02    180.02   
   971. D(C  12,C  17,C  16,C   0)    -96.21  0.000085   -0.02    -96.23   
   972. D(C  12,C  17,C  16,C   5)   -113.96 -0.000375    0.05   -113.91   
   973. D(C  12,C  17,C  16,C   1)    -77.22  0.000517   -0.09    -77.31   
   974. D(C  12,C  17,C  16,C   4)   -113.96 -0.000372    0.05   -113.91   
   975. D(C  12,C  17,C  16,C   2)    -77.22  0.000515   -0.09    -77.31   
   976. D(C  12,C  17,C  16,H  22)    180.00  0.000184   -0.02    179.98   
   977. D(C  12,C  17,C  16,C  15)      0.00 -0.000014    0.00      0.00   
   978. D(C   1,C  17,C  12,C   2)    -17.71 -0.000277    0.07    -17.65   
   979. D(C   1,C  17,C  12,H  18)     96.47  0.000201   -0.03     96.44   
   980. D(C   1,C  17,C  12,C  13)    -83.53  0.000360   -0.05    -83.57   
   981. D(C   0,C  17,C  12,C   5)      0.00  0.000051    0.00      0.00   
   982. D(C   0,C  17,C  12,C   1)    -19.00 -0.000482    0.08    -18.92   
   983. D(C   0,C  17,C  12,H  18)     77.47 -0.000282    0.05     77.52   
   984. D(C   0,C  17,C  12,C  13)   -102.53 -0.000122    0.04   -102.49   
   985. D(H  23,C  17,C  12,C   5)    -77.47  0.000410   -0.05    -77.52   
   986. D(H  23,C  17,C  12,C   2)   -114.18 -0.000400    0.09   -114.09   
   987. D(H  23,C  17,C  12,C   0)    -77.47  0.000359   -0.05    -77.53   
   988. D(H  23,C  17,C  12,C   1)    -96.47 -0.000123    0.03    -96.44   
   989. D(H  23,C  17,C  12,C  13)    180.00  0.000237   -0.02    179.98   
   990. D(C  16,C  17,C  12,C   5)    102.53  0.000249   -0.03    102.50   
   991. D(C  16,C  17,C  12,C   2)     65.82 -0.000561    0.11     65.93   
   992. D(C  16,C  17,C  12,C   1)     83.53 -0.000284    0.05     83.58   
   993. D(C  16,C  17,C  12,H  18)    180.00 -0.000083    0.02    180.02   
   994. D(C  16,C  17,C  12,C  13)      0.00  0.000076    0.00      0.00   
   995. D(C   1,C  17,C   5,C   0)    -32.28 -0.000026    0.02    -32.26   
   996. D(C   0,C  17,C   5,C  12)      0.00 -0.000144   -0.01     -0.01   
   997. D(C   0,C  17,C   5,C  16)    122.28  0.000002   -0.03    122.26   
   998. D(C   0,C  17,C   5,H  11)   -115.43 -0.000085   -0.01   -115.44   
   999. D(C   0,C  17,C   5,C   4)    122.28 -0.000009   -0.02    122.26   
  1000. D(H  23,C  17,C   5,C  12)    115.43 -0.000157    0.03    115.46   
  1001. D(H  23,C  17,C   5,C  16)   -122.28 -0.000011    0.01   -122.27   
  1002. D(H  23,C  17,C   5,C   4)   -122.28 -0.000022    0.01   -122.27   
  1003. D(H  23,C  17,C   5,C   0)    115.43 -0.000013    0.04    115.47   
  1004. D(C  16,C  17,C   5,C  12)   -122.28 -0.000146    0.01   -122.27   
  1005. D(C  16,C  17,C   5,C   4)      0.00 -0.000011    0.00      0.00   
  1006. D(C  16,C  17,C   5,C   0)   -122.28 -0.000002    0.03   -122.26   
  1007. D(C  12,C  17,C   5,C  16)    122.28  0.000146   -0.01    122.27   
  1008. D(C  12,C  17,C   5,C   4)    122.28  0.000135   -0.01    122.27   
  1009. D(C  12,C  17,C   5,C   0)     -0.00  0.000144    0.01      0.01   
  1010. D(C   0,C  17,C   4,C  15)    121.27 -0.000099   -0.01    121.26   
  1011. D(C   0,C  17,C   4,C  16)    148.60 -0.000169    0.01    148.61   
  1012. D(C   0,C  17,C   4,H  10)   -145.49  0.000082   -0.04   -145.53   
  1013. D(C   0,C  17,C   4,C   5)    -31.40 -0.000180    0.01    -31.39   
  1014. D(C   0,C  17,C   4,C   3)     95.25 -0.000042   -0.04     95.20   
  1015. D(H  23,C  17,C   4,C  16)   -126.65 -0.000197    0.04   -126.61   
  1016. D(H  23,C  17,C   4,H  10)    -60.74  0.000054   -0.01    -60.75   
  1017. D(H  23,C  17,C   4,C   5)     53.35 -0.000209    0.04     53.39   
  1018. D(C  16,C  17,C   4,C  15)    -27.33  0.000070   -0.02    -27.35   
  1019. D(C  16,C  17,C   4,H  10)     65.91  0.000251   -0.04     65.86   
  1020. D(C  16,C  17,C   4,C   5)    180.00 -0.000012    0.00    180.00   
  1021. D(C  12,C  17,C   4,C  15)     86.76 -0.000085    0.02     86.79   
  1022. D(C  12,C  17,C   4,C  16)    114.09 -0.000155    0.04    114.13   
  1023. D(C  12,C  17,C   4,H  10)   -180.00  0.000096   -0.01   -180.01   
  1024. D(C  12,C  17,C   4,C   5)    -65.91 -0.000167    0.04    -65.87   
  1025. D(C  12,C  17,C   4,C   3)     60.74 -0.000028   -0.01     60.73   
  1026. D(C   0,C  17,C   3,C  16)    180.00 -0.000003    0.00    180.00   
  1027. D(C   0,C  17,C   3,H   9)    180.00  0.000017   -0.01    179.99   
  1028. D(C   0,C  17,C   3,C   2)     65.85  0.000072   -0.02     65.83   
  1029. D(H  23,C  17,C   3,C  14)   -180.00 -0.000056    0.00   -180.00   
  1030. D(H  23,C  17,C   3,C  15)   -151.74 -0.000023    0.00   -151.74   
  1031. D(H  23,C  17,C   3,H   9)   -119.13  0.000151   -0.02   -119.15   
  1032. D(H  23,C  17,C   3,C   4)      0.00 -0.000070   -0.01     -0.01   
  1033. D(H  23,C  17,C   3,C   2)    126.72  0.000206   -0.04    126.68   
  1034. D(C  16,C  17,C   3,C  14)    -60.87 -0.000187    0.02    -60.85   
  1035. D(C  16,C  17,C   3,C  15)    -32.61 -0.000154    0.02    -32.59   
  1036. D(C  16,C  17,C   3,H   9)      0.00  0.000020   -0.01     -0.01   
  1037. D(C  16,C  17,C   3,C   4)    119.13 -0.000201    0.01    119.14   
  1038. D(C  16,C  17,C   3,C   2)   -114.15  0.000075   -0.02   -114.17   
  1039. D(C  12,C  17,C   3,C  14)     53.28 -0.000278    0.05     53.33   
  1040. D(H  23,C  17,C   3,C  16)   -119.13  0.000131   -0.02   -119.15   
  1041. D(C  12,C  17,C   3,C  15)     81.54 -0.000245    0.05     81.59   
  1042. D(C  12,C  17,C   3,C  16)    114.15 -0.000091    0.03    114.18   
  1043. D(C  12,C  17,C   3,H   9)    114.15 -0.000071    0.02    114.17   
  1044. D(C   0,C  17,C   3,C   4)    -60.87 -0.000204    0.01    -60.86   
  1045. D(C  12,C  17,C   3,C   4)   -126.72 -0.000292    0.03   -126.69   
  1046. D(C  12,C  17,C   3,C   2)      0.00 -0.000016    0.00      0.00   
  1047. D(C   0,C  17,C   2,C   3)    -90.06 -0.000143    0.03    -90.03   
  1048. D(C   0,C  17,C   2,C   1)     32.31  0.000117   -0.01     32.30   
  1049. D(H  23,C  17,C   2,C  12)    122.28  0.000045   -0.01    122.28   
  1050. D(H  23,C  17,C   2,C  13)    150.07 -0.000021    0.00    150.07   
  1051. D(H  23,C  17,C   2,C  14)   -180.00 -0.000005   -0.00   -180.00   
  1052. D(C  16,C  17,C   4,C   3)    -53.35  0.000127   -0.05    -53.40   
  1053. D(H  23,C  17,C   2,C  16)   -115.34  0.000287   -0.04   -115.39   
  1054. D(H  23,C  17,C   2,C  15)   -147.65  0.000196   -0.03   -147.69   
  1055. D(H  23,C  17,C   2,H   8)    180.00 -0.000025    0.00    180.00   
  1056. D(H  23,C  17,C   4,C   3)   -180.00 -0.000070   -0.01   -180.01   
  1057. D(H  23,C  17,C   2,C   3)    -57.72  0.000030   -0.00    -57.72   
  1058. D(H  23,C  17,C   2,C   1)     64.66  0.000290   -0.05     64.61   
  1059. D(C  16,C  17,C   2,C  12)   -122.37 -0.000242    0.04   -122.34   
  1060. D(H  23,C  17,C   4,C  15)   -153.98 -0.000127    0.02   -153.95   
  1061. D(C  16,C  17,C   2,C  13)    -94.59 -0.000308    0.04    -94.54   
  1062. D(C  16,C  17,C   2,C  14)    -64.66 -0.000292    0.04    -64.62   
  1063. D(C  16,C  17,C   2,C  15)    -32.31 -0.000091    0.01    -32.30   
  1064. D(C  16,C  17,C   2,H   8)    -64.66 -0.000312    0.05    -64.61   
  1065. D(C  16,C  17,C   2,C   3)     57.63 -0.000257    0.04     57.67   
  1066. D(C  16,C  17,C   2,C   1)    180.00  0.000003   -0.00    180.00   
  1067. D(C  12,C  17,C   2,C  13)     27.79 -0.000066    0.01     27.80   
  1068. D(C  12,C  17,C   5,H  11)   -115.43  0.000059   -0.00   -115.43   
  1069. D(C  12,C  17,C   2,C  14)     57.72 -0.000051    0.00     57.72   
  1070. D(C  12,C  17,C   2,C  16)    122.37  0.000242   -0.04    122.34   
  1071. D(C  12,C  17,C   2,C  15)     90.06  0.000151   -0.03     90.04   
  1072. D(C  16,C  17,C   5,H  11)    122.28 -0.000087    0.01    122.30   
  1073. D(C  12,C  17,C   2,H   8)     57.72 -0.000071    0.01     57.72   
  1074. D(C  12,C  17,C   2,C   3)    180.00 -0.000015    0.00    180.00   
  1075. D(C  12,C  17,C   2,C   1)    -57.63  0.000245   -0.04    -57.66   
  1076. D(H  23,C  17,C   5,H  11)     -0.00 -0.000098    0.03      0.03   
  1077. D(C   0,C  17,C   1,H   7)    118.75 -0.000037    0.02    118.77   
  1078. D(C   0,C  17,C   1,C   2)   -120.63 -0.000116    0.01   -120.61   
  1079. D(H  23,C  17,C   1,C  15)   -150.01  0.000101   -0.01   -150.02   
  1080. D(H  23,C  17,C   1,C  14)   -180.00  0.000054   -0.01   -180.01   
  1081. D(H  23,C  17,C   1,C  16)   -120.63  0.000055    0.00   -120.62   
  1082. D(H  23,C  17,C   1,C  13)    149.37  0.000024   -0.00    149.37   
  1083. D(H  23,C  17,C   1,C  12)    118.75 -0.000062    0.02    118.77   
  1084. D(C   1,C  17,C   5,C   4)     90.00 -0.000035   -0.00     90.00   
  1085. D(H  23,C  17,C   1,H   7)    118.75  0.000137    0.01    118.75   
  1086. D(H  23,C  17,C   1,C   2)   -120.63  0.000058    0.00   -120.62   
  1087. D(H  23,C  17,C   1,C   0)      0.00  0.000174   -0.01     -0.01   
  1088. D(C  16,C  17,C  12,C   0)    102.53  0.000198   -0.03    102.50   
  1089. D(C  16,C  17,C   1,C  15)    -29.38  0.000046   -0.02    -29.40   
  1090. D(C  16,C  17,C   1,C  14)    -59.37 -0.000001   -0.01    -59.39   
  1091. D(C  16,C  17,C   1,C  13)    -90.00 -0.000031   -0.01    -90.01   
  1092. D(H  23,C  17,C  12,H  18)      0.00  0.000078   -0.00     -0.00   
  1093. D(C  16,C  17,C   1,C  12)   -120.63 -0.000117    0.01   -120.61   
  1094. D(C  16,C  17,C   1,H   7)   -120.63  0.000082    0.00   -120.62   
  1095. D(C  16,C  17,C   1,C   2)      0.00  0.000003   -0.00     -0.00   
  1096. D(C  16,C  17,C   1,C   0)    120.63  0.000119   -0.02    120.61   
  1097. D(C  12,C  17,C   1,C  15)     91.24  0.000163   -0.03     91.21   
  1098. D(C  12,C  17,C   1,C  14)     61.25  0.000116   -0.03     61.23   
  1099. D(C  12,C  17,C   1,C  16)    120.63  0.000117   -0.01    120.61   
  1100. D(C   0,C  17,C  12,C   2)    -36.71 -0.000759    0.15    -36.56   
  1101. D(C  12,C  17,C   1,C  13)     30.63  0.000086   -0.02     30.61   
  1102. D(C  12,C  17,C   1,H   7)      0.00  0.000199   -0.01     -0.01   
  1103. D(C  12,C  17,C   1,C   2)    120.63  0.000120   -0.01    120.61   
  1104. D(C   1,C  17,C  12,C   0)     19.00  0.000482   -0.08     18.92   
  1105. D(C  12,C  17,C   1,C   0)   -118.75  0.000236   -0.03   -118.78   
  1106. D(C   1,C  17,C   0,C  13)    -29.98 -0.000066   -0.00    -29.98   
  1107. D(C   1,C  17,C   0,C  16)     61.20 -0.000030   -0.00     61.20   
  1108. D(C  12,C  17,C  16,C   3)    -96.21  0.000083   -0.02    -96.23   
  1109. D(C   1,C  17,C   0,C  12)    -59.37 -0.000076    0.00    -59.37   
  1110. D(C   1,C  17,C   0,H   6)   -118.80 -0.000047    0.00   -118.79   
  1111. D(C   1,C  17,C   0,C   5)    120.63  0.000059    0.01    120.64   
  1112. D(H  23,C  17,C   0,C  13)    150.02  0.000108   -0.02    150.01   
  1113. D(H  23,C  17,C   0,C  16)   -118.80  0.000144   -0.01   -118.81   
  1114. D(H  23,C  17,C   0,C  12)    120.63  0.000098   -0.01    120.62   
  1115. D(H  23,C  17,C   0,H   6)     61.20  0.000127   -0.01     61.20   
  1116. D(H  23,C  17,C  16,C   3)     83.79 -0.000078    0.00     83.79   
  1117. D(H  23,C  17,C   0,C   5)    -59.37  0.000233    0.00    -59.37   
  1118. D(H  23,C  17,C   0,C   1)   -180.00  0.000174   -0.01   -180.01   
  1119. D(C  16,C  17,C   0,C  13)    -91.18 -0.000035   -0.00    -91.18   
  1120. D(H  23,C  17,C  16,C   5)     66.04 -0.000537    0.07     66.11   
  1121. D(C  16,C  17,C   0,C  12)   -120.58 -0.000046    0.00   -120.58   
  1122. D(C  16,C  17,C   0,H   6)    180.00 -0.000017    0.00    180.00   
  1123. D(C  16,C  17,C   0,C   5)     59.42  0.000089    0.01     59.43   
  1124. D(C   0,C  17,C  16,C   3)      0.00 -0.000002    0.00      0.00   
  1125. D(C  16,C  17,C   0,C   1)    -61.20  0.000030    0.00    -61.20   
  1126. D(C  12,C  17,C   0,C  13)     29.40  0.000011   -0.00     29.39   
  1127. D(C  12,C  17,C   0,C  16)    120.58  0.000046   -0.00    120.58   
  1128. D(C  12,C  17,C   0,H   6)    -59.42  0.000029    0.00    -59.42   
  1129. D(C  12,C  17,C   0,C   5)    180.00  0.000135    0.01    180.01   
  1130. D(C  12,C  17,C   0,C   1)     59.37  0.000076   -0.00     59.37   
    ----------------------------------------------------------------------------

Geometry step timings:
Preparation and reading OPT file:      0.000 s ( 0.003 %)
Internal coordinates            :      0.000 s ( 0.013 %)
B/P matrices and projection     :      0.329 s (29.195 %)
Hessian update/contruction      :      0.275 s (24.331 %)
Making the step                 :      0.501 s (44.357 %)
Converting the step to Cartesian:      0.008 s ( 0.677 %)
Storing new data                :      0.000 s ( 0.012 %)
Checking convergence            :      0.001 s ( 0.102 %)
Final printing                  :      0.015 s ( 1.311 %)
Total time                      :      1.128 s

Time for energy+gradient        :     18.656 s
Time for complete geometry iter :     20.410 s

         *************************************************************
         *                GEOMETRY OPTIMIZATION CYCLE   2            *
         *************************************************************
---------------------------------
CARTESIAN COORDINATES (ANGSTROEM)
---------------------------------
  C     -0.799483    1.389377   -1.800029
  C      0.404141    0.694626   -1.800880
  C      0.404148   -0.694670   -1.800885
  C     -0.799492   -1.389382   -1.800120
  C     -2.003100   -0.694913   -1.799060
  C     -2.003084    0.694894   -1.799135
  H     -0.799436    2.471749   -1.800393
  H      1.341249    1.235753   -1.801872
  H      1.341252   -1.235800   -1.801877
  H     -0.799431   -2.471748   -1.800622
  H     -2.940582   -1.236348   -1.799648
  H     -2.940562    1.236332   -1.799728
  C      0.799487    1.389434    1.800062
  C      2.003070    0.694908    1.799169
  C      2.003065   -0.694895    1.799136
  C      0.799477   -1.389387    1.800070
  C     -0.404121   -0.694641    1.800862
  C     -0.404117    0.694653    1.800879
  H      0.799452    2.471805    1.800401
  H      2.940558    1.236325    1.799763
  H      2.940551   -1.236323    1.799697
  H      0.799432   -2.471756    1.800489
  H     -1.341236   -1.235756    1.801854
  H     -1.341235    1.235760    1.801866

----------------------------
CARTESIAN COORDINATES (A.U.)
----------------------------
  NO LB      ZA    FRAG     MASS         X           Y           Z
   0 C     6.0000    0    12.011   -1.510805    2.625542   -3.401561
   1 C     6.0000    0    12.011    0.763715    1.312654   -3.403170
   2 C     6.0000    0    12.011    0.763730   -1.312736   -3.403180
   3 C     6.0000    0    12.011   -1.510820   -2.625551   -3.401734
   4 C     6.0000    0    12.011   -3.785310   -1.313195   -3.399730
   5 C     6.0000    0    12.011   -3.785280    1.313160   -3.399872
   6 H     1.0000    0     1.008   -1.510716    4.670929   -3.402249
   7 H     1.0000    0     1.008    2.534592    2.335236   -3.405045
   8 H     1.0000    0     1.008    2.534600   -2.335323   -3.405053
   9 H     1.0000    0     1.008   -1.510706   -4.670927   -3.402683
  10 H     1.0000    0     1.008   -5.556896   -2.336359   -3.400843
  11 H     1.0000    0     1.008   -5.556857    2.336330   -3.400994
  12 C     6.0000    0    12.011    1.510811    2.625649    3.401624
  13 C     6.0000    0    12.011    3.785253    1.313186    3.399937
  14 C     6.0000    0    12.011    3.785245   -1.313162    3.399875
  15 C     6.0000    0    12.011    1.510793   -2.625561    3.401639
  16 C     6.0000    0    12.011   -0.763678   -1.312682    3.403135
  17 C     6.0000    0    12.011   -0.763670    1.312705    3.403169
  18 H     1.0000    0     1.008    1.510746    4.671035    3.402264
  19 H     1.0000    0     1.008    5.556849    2.336317    3.401059
  20 H     1.0000    0     1.008    5.556835   -2.336313    3.400935
  21 H     1.0000    0     1.008    1.510707   -4.670942    3.402431
  22 H     1.0000    0     1.008   -2.534568   -2.335240    3.405011
  23 H     1.0000    0     1.008   -2.534568    2.335247    3.405034

--------------------------------
INTERNAL COORDINATES (ANGSTROEM)
--------------------------------
 C      0   0   0     0.000000000000     0.00000000     0.00000000
 C      1   0   0     1.389744357148     0.00000000     0.00000000
 C      2   1   0     1.389296380493   119.99451622     0.00000000
 C      3   2   1     1.389738779494   119.99217614     0.00000000
 C      4   3   2     1.389590361080   120.02303643     0.00000000
 C      1   2   3     1.389590299980   120.02069504     0.00000000
 H      1   2   3     1.082372729666   119.99169944   180.02247670
 H      2   1   3     1.082123272020   120.00180074   179.97964606
 H      3   2   1     1.082121222236   120.00453343   179.97993012
 H      4   3   2     1.082366404940   119.98928013   179.96954521
 H      5   4   3     1.082601398872   120.00725614   179.92759391
 H      6   1   2     1.082598925723   120.00638639   180.07680356
 C      8   2   1     3.645689730253    83.77027354    83.58949941
 C     13   8   2     1.389596910069    81.34904364   119.49109580
 C     14  13   8     1.389803344660   119.98682033   267.79132543
 C     15  14  13     1.389583673728   119.98589475     0.00000000
 C     16  15  14     1.389719893546   120.01974954     0.00000000
 C     17  16  15     1.389294618309   119.99437599     0.00000000
 H     13   8   2     1.082371689835    92.43394577   239.46284322
 H     14  13   8     1.082597273269   120.00567844    87.86854145
 H     15  14  13     1.082600389335   120.00762281   180.07678124
 H     16  15  14     1.082369446910   119.98812026   180.02717054
 H     17  16  15     1.082122750945   120.00220320   180.01625222
 H     18  17  16     1.082121932283   120.00259658   180.02265231

---------------------------
INTERNAL COORDINATES (A.U.)
---------------------------
 C      0   0   0     0.000000000000     0.00000000     0.00000000
 C      1   0   0     2.626236231171     0.00000000     0.00000000
 C      2   1   0     2.625389677980   119.99451622     0.00000000
 C      3   2   1     2.626225690934   119.99217614     0.00000000
 C      4   3   2     2.625945220777   120.02303643     0.00000000
 C      1   2   3     2.625945105315   120.02069504     0.00000000
 H      1   2   3     2.045388033894   119.99169944   180.02247670
 H      2   1   3     2.044916627260   120.00180074   179.97964606
 H      3   2   1     2.044912753731   120.00453343   179.97993012
 H      4   3   2     2.045376081893   119.98928013   179.96954521
 H      5   4   3     2.045820156069   120.00725614   179.92759391
 H      6   1   2     2.045815482494   120.00638639   180.07680356
 C      8   2   1     6.889355159428    83.77027354    83.58949941
 C     13   8   2     2.625957596573    81.34904364   119.49109580
 C     14  13   8     2.626347701416   119.98682033   267.79132543
 C     15  14  13     2.625932583514   119.98589475     0.00000000
 C     16  15  14     2.626190001664   120.01974954     0.00000000
 C     17  16  15     2.625386347934   119.99437599     0.00000000
 H     13   8   2     2.045386068897    92.43394577   239.46284322
 H     14  13   8     2.045812359809   120.00567844    87.86854145
 H     15  14  13     2.045818248319   120.00762281   180.07678124
 H     16  15  14     2.045381830383   119.98812026   180.02717054
 H     17  16  15     2.044915642572   120.00220320   180.01625222
 H     18  17  16     2.044914095525   120.00259658   180.02265231



           ************************************************************
           *        Program running with 4 parallel MPI-processes     *
           *              working on a common directory               *
           ************************************************************
------------------------------------------------------------------------------
                   ___                                                        
                  /   \      - P O W E R E D   B Y -                         
                 /     \                                                     
                 |  |  |   _    _      __       _____    __    __             
                 |  |  |  | |  | |    /  \     |  _  \  |  |  /  |          
                  \  \/   | |  | |   /    \    | | | |  |  | /  /          
                 / \  \   | |__| |  /  /\  \   | |_| |  |  |/  /          
                |  |  |   |  __  | /  /__\  \  |    /   |      \           
                |  |  |   | |  | | |   __   |  |    \   |  |\   \          
                \     /   | |  | | |  |  |  |  | |\  \  |  | \   \       
                 \___/    |_|  |_| |__|  |__|  |_| \__\ |__|  \__/        
                                                                              
                      - O R C A' S   B I G   F R I E N D -                    
                                      &                                       
                       - I N T E G R A L  F E E D E R -                       
                                                                              
 v1 FN, 2020, v2 2021, v3 2022-2024                                           
------------------------------------------------------------------------------


----------------------
SHARK INTEGRAL PACKAGE
----------------------

Number of atoms                             ...     24
Number of basis functions                   ...    264
Number of shells                            ...    144
Maximum angular momentum                    ...      2
Integral batch strategy                     ... SHARK/LIBINT Hybrid
RI-J (if used) integral strategy            ... SPLIT-RIJ (Revised 2003 algorithm where possible)
Printlevel                                  ...      1
Contraction scheme used                     ... SEGMENTED contraction
Prescreening option                         ... SCHWARTZ
   Thresh                                   ... 2.500e-11
   Tcut                                     ... 2.500e-12
   Tpresel                                  ... 2.500e-12 
Coulomb Range Separation                    ... NOT USED
Exchange Range Separation                   ... NOT USED
Multipole approximations                    ... NOT USED
Finite Nucleus Model                        ... NOT USED
CABS basis                                  ... NOT available
Auxiliary Coulomb fitting basis             ... AVAILABLE
   # of basis functions in Aux-J            ...    432
   # of shells in Aux-J                     ...    192
   Maximum angular momentum in Aux-J        ...      2
Auxiliary J/K fitting basis                 ... NOT available
Auxiliary Correlation fitting basis         ... NOT available
Auxiliary 'external' fitting basis          ... NOT available

Checking pre-screening integrals            ... done (  0.0 sec) Dimension = 144
   => SHARK Basis and OBASIS are compatible. Storing Pre-screening
Shell pair information
Shell pair cut-off parameter TPreSel        ...   2.5e-12
Total number of shell pairs                 ...     10440
Shell pairs after pre-screening             ...      9148
Total number of primitive shell pairs       ...     38526
Primitive shell pairs kept                  ...     22702
          la=0 lb=0:   3874 shell pairs
          la=1 lb=0:   3204 shell pairs
          la=1 lb=1:    652 shell pairs
          la=2 lb=0:    936 shell pairs
          la=2 lb=1:    412 shell pairs
          la=2 lb=2:     70 shell pairs

Checking whether 4 symmetric matrices of dimension 264 fit in memory
:Max Core in MB      =   2500.00
 MB in use           =     13.22
 MB left             =   2486.78
 MB needed           =      1.07
 Data fit in memory  = YES
Calculating RI/J V-Matrix + Cholesky decomp.... done (  0.1 sec)
Calculating Nuclear repulsion               ... done (  0.0 sec) ENN=    620.972234342863 Eh

Diagonalization of the overlap matrix:
Smallest eigenvalue                        ... 9.768e-06
Time for diagonalization                   ...    0.017 sec
Threshold for overlap eigenvalues          ... 1.000e-07
Number of eigenvalues below threshold      ... 0
Time for construction of square roots      ...    0.020 sec
Total time needed                          ...    0.091 sec

-------------------
DFT GRID GENERATION
-------------------

General Integration Accuracy     IntAcc      ... 4.388
Radial Grid Type                 RadialGrid  ... OptM3 with GC (2021)
Angular Grid (max. ang.)         AngularGrid ... 4 (Lebedev-302)
Angular grid pruning method      GridPruning ... 4 (adaptive)
Weight generation scheme         WeightScheme... mBecke (2022)
Basis function cutoff            BFCut       ... 1.0000e-11
Integration weight cutoff        WCut        ... 1.0000e-14
Partially contracted basis set               ... off
Rotationally invariant grid construction     ... off
Angular grids for H and He will be reduced by one unit

Total number of grid points                  ...   110196
Total number of batches                      ...     1731
Average number of points per batch           ...       63
Average number of grid points per atom       ...     4592
Grids setup in   1.6 sec
Initializing property integral containers    ... done (  0.0 sec)

SHARK setup successfully completed in   2.5 seconds

Maximum memory used throughout the entire STARTUP-calculation: 34.8 MB


           ************************************************************
           *        Program running with 4 parallel MPI-processes     *
           *              working on a common directory               *
           ************************************************************
Occupation numbers will be reassigned to an Aufbau configuration
             **** ENERGY FILE WAS UPDATED (dimero_PD.en.tmp) ****
Finished Guess after   0.1 sec
Maximum memory used throughout the entire GUESS-calculation: 17.4 MB


           ************************************************************
           *        Program running with 4 parallel MPI-processes     *
           *              working on a common directory               *
           ************************************************************
----------------------------------------D-I-I-S--------------------------------------------
Iteration    Energy (Eh)           Delta-E    RMSDP     MaxDP     DIISErr   Damp  Time(sec)
-------------------------------------------------------------------------------------------
               ***  Starting incremental Fock matrix formation  ***
                              *** Initializing SOSCF ***
---------------------------------------S-O-S-C-F--------------------------------------
Iteration    Energy (Eh)           Delta-E    RMSDP     MaxDP     MaxGrad    Time(sec)
--------------------------------------------------------------------------------------
    1    -464.1260525155697678     0.00e+00  7.82e-04  7.67e-03  3.47e-04     1.0
               *** Restarting incremental Fock matrix formation ***
    2    -464.1261582314999714    -1.06e-04  5.73e-04  8.79e-03  5.96e-04     0.8
    3    -464.1261441832799619     1.40e-05  2.88e-04  4.76e-03  8.33e-04     0.7
    4    -464.1261764428967354    -3.23e-05  3.45e-05  2.34e-04  1.31e-04     0.7
    5    -464.1261748865039181     1.56e-06  2.51e-05  1.93e-04  2.97e-04     0.7
