12
Coordinates from ORCA-job benzeno E -232.130430103136
  C           0.00000000140158      1.38823949074927     -0.00000001203461
  C           1.20220535706759      0.69410938966054     -0.00000000754370
  C           1.20220535378444     -0.69410938648847      0.00000001766120
  C          -0.00000000141145     -1.38823949047075     -0.00000001094722
  C          -1.20220535866996     -0.69410938983867     -0.00000000299936
  C          -1.20220535496635      0.69410938673544      0.00000001808776
  H           0.00000000204615      2.47040569684265      0.00000000427400
  H           2.13938115722407      1.23522738821489     -0.00000000011371
  H           2.13938115203181     -1.23522738464440     -0.00000000219578
  H           0.00000000000696     -2.47040569590489      0.00000000091477
  H          -2.13938115642892     -1.23522739219937      0.00000000008114
  H          -2.13938115208592      1.23522738734376     -0.00000000518449
