12
Coordinates from ORCA-job benzeno E -232.130069080871
  C       0.000000      1.395248      0.000000
  C       1.208320      0.697624      0.000000
  C       1.208320     -0.697624      0.000000
  C       0.000000     -1.395248      0.000000
  C      -1.208320     -0.697624      0.000000
  C      -1.208320      0.697624      0.000000
  H       0.000000      2.482360      0.000000
  H       2.149787      1.241180      0.000000
  H       2.149787     -1.241180      0.000000
  H       0.000000     -2.482360      0.000000
  H      -2.149787     -1.241180      0.000000
  H      -2.149787      1.241180      0.000000
12
Coordinates from ORCA-job benzeno E -232.130420997041
  C       0.000000      1.389525     -0.000000
  C       1.203335      0.694759      0.000000
  C       1.203335     -0.694759     -0.000000
  C      -0.000000     -1.389525     -0.000000
  C      -1.203335     -0.694759      0.000000
  C      -1.203335      0.694759     -0.000000
  H       0.000000      2.471789     -0.000000
  H       2.140602      1.235910      0.000000
  H       2.140602     -1.235910     -0.000000
  H      -0.000000     -2.471789     -0.000000
  H      -2.140602     -1.235910      0.000000
  H      -2.140602      1.235910     -0.000000
12
Coordinates from ORCA-job benzeno E -232.130430069932
  C       0.000000      1.388263     -0.000000
  C       1.202229      0.694123     -0.000000
  C       1.202229     -0.694123      0.000000
  C      -0.000000     -1.388263     -0.000000
  C      -1.202229     -0.694123     -0.000000
  C      -1.202229      0.694123      0.000000
  H       0.000000      2.470349      0.000000
  H       2.139337      1.235195     -0.000000
  H       2.139337     -1.235195      0.000000
  H       0.000000     -2.470349      0.000000
  H      -2.139337     -1.235195     -0.000000
  H      -2.139337      1.235195      0.000000
12
Coordinates from ORCA-job benzeno E -232.130430103136
  C       0.000000      1.388239     -0.000000
  C       1.202205      0.694109     -0.000000
  C       1.202205     -0.694109      0.000000
  C      -0.000000     -1.388239     -0.000000
  C      -1.202205     -0.694109     -0.000000
  C      -1.202205      0.694109      0.000000
  H       0.000000      2.470406      0.000000
  H       2.139381      1.235227     -0.000000
  H       2.139381     -1.235227     -0.000000
  H       0.000000     -2.470406      0.000000
  H      -2.139381     -1.235227      0.000000
  H      -2.139381      1.235227     -0.000000
