24
Properties=species:S:1:pos:R:3:forces:R:3 charge=0 spin=1 programa=fairchem-core versao=2.22.0 modelo=uma-s-1p2p1 tarefa=omol ase=3.29.0 convergiu=T fmax_criterio=0.01 energy=-12638.526887382846 free_energy=-12638.526887382846 stress="-0.031328450715456875 -0.002516052942747537 0.0005668002978208913 -0.002516052942747537 -0.0373014532602 -0.0026418812484570835 0.0005668002978208913 -0.0026418812484570835 0.016118989345287438" pbc="F F F"
C       -0.00712430       1.39023289      -1.94351107       0.00172892       0.00229280       0.00271288
C        1.19463800       0.69634151      -1.93921271       0.00071248       0.00132507      -0.00338599
C        1.19454271      -0.69129479      -1.94226535      -0.00004253      -0.00187191       0.00058905
C       -0.00716800      -1.38509292      -1.94905895      -0.00520639      -0.00005654       0.00189563
C       -1.20891657      -0.69125046      -1.95042614      -0.00492433       0.00545648      -0.00338609
C       -1.20897980       0.69644611      -1.94759360       0.00209077       0.00631520       0.00162864
H       -0.00690433       2.47291124      -1.94002352      -0.00110199      -0.00097775       0.00648019
H        2.13230332       1.23747501      -1.92970481      -0.00028274       0.00097931      -0.00222415
H        2.13189407      -1.23277638      -1.93540908       0.00456034      -0.00133900      -0.00057472
H       -0.00754548      -2.46763190      -1.94907554       0.00202854      -0.00419660       0.00294979
H       -2.14677820      -1.23199572      -1.95074606      -0.00036932      -0.00453505       0.00152339
H       -2.14637689       1.23827727      -1.94403227       0.00095250      -0.00404636      -0.00409291
C       -0.00558220       1.38998975       1.96567912      -0.00085462       0.00067316       0.00139622
C        1.19529167       0.69473246       1.95771821       0.00258636       0.00178414      -0.00217812
C        1.19377478      -0.69285887       1.95161744       0.00183705       0.00127450      -0.00101483
C       -0.00865564      -1.38538999       1.95500766       0.00101800      -0.00057017       0.00404626
C       -1.20969063      -0.69029845       1.96364472       0.00068628      -0.00058228      -0.00692172
C       -1.20815431       0.69743049       1.96812855       0.00029244       0.00014815       0.00383553
H       -0.00399776       2.47263367       1.96621608      -0.00208361       0.00030788      -0.00077893
H        2.13357304       1.23472844       1.95217316       0.00154795       0.00269875      -0.00210145
H        2.13083368      -1.23484484       1.93961342       0.00166061      -0.00305399       0.00324652
H       -0.00935073      -2.46791722       1.94801983      -0.00299617      -0.00376896      -0.00418128
H       -2.14772269      -1.23081171       1.96162998      -0.00185635       0.00084966       0.00178225
H       -2.14509497       1.23978380       1.97056293      -0.00198421       0.00089350      -0.00124617
