24
Properties=species:S:1:pos:R:3:forces:R:3 charge=0 spin=1 programa=fairchem-core versao=2.22.0 modelo=uma-s-1p2p1 tarefa=omol ase=3.29.0 convergiu=T fmax_criterio=0.01 energy=-12638.563884880637 free_energy=-12638.563884880637 stress="0.03205862982800438 -6.257650000395219e-05 -5.065687617455511e-06 -6.257650000395219e-05 -0.007827069717788585 3.1161513182319823e-07 -5.065687617455511e-06 3.1161513182319823e-07 0.054840527064398494" pbc="F F F"
C       -0.00000201       1.38857230      -2.50025379       0.00003517       0.00020638       0.00060079
C        1.20225205       0.69423489      -2.50005350      -0.00050274      -0.00018231      -0.00062720
C        1.20225887      -0.69423051      -2.50005993      -0.00045553       0.00016255      -0.00063029
C        0.00000198      -1.38857229      -2.50025380      -0.00003883      -0.00020341       0.00060419
C       -1.20225200      -0.69423483      -2.50005350       0.00050111       0.00017797      -0.00062884
C       -1.20225882       0.69423053      -2.50005993       0.00045616      -0.00016324      -0.00062863
H        0.00000211       2.47089504      -2.49927884       0.00000179       0.00056094       0.00520256
H        2.13965869       1.23556450      -2.49976047      -0.00033337       0.00100477       0.00204059
H        2.13965787      -1.23557027      -2.49975896      -0.00034220      -0.00100452       0.00203512
H       -0.00000212      -2.47089505      -2.49927884      -0.00000117      -0.00056108       0.00520170
H       -2.13965876      -1.23556459      -2.49976046       0.00033746      -0.00100231       0.00204061
H       -2.13965787       1.23557028      -2.49975897       0.00034188       0.00100430       0.00203519
C       -0.00000002      -0.00000004       3.88866457      -0.00000233       0.00000011       0.00277131
C        1.20203918       0.00003898       3.19431058      -0.00173296       0.00010082      -0.00294362
C        1.20132136      -0.00000167       1.80607080      -0.00113760       0.00003694       0.00058092
C        0.00000002       0.00000001       1.11037168       0.00000135       0.00000015      -0.00433686
C       -1.20132142       0.00000166       1.80607086       0.00114327      -0.00003743       0.00058305
C       -1.20203924      -0.00003896       3.19431059       0.00173675      -0.00010059      -0.00294336
H        0.00000002       0.00000001       4.97120212      -0.00000045       0.00000015       0.00177036
H        2.13961331       0.00000407       3.73572894      -0.00118909       0.00012070       0.00058285
H        2.13867344      -0.00002229       1.26382430      -0.00347697      -0.00017311      -0.00556464
H       -0.00000000       0.00000001       0.02822330      -0.00000084      -0.00000003      -0.00276017
H       -2.13867337       0.00002228       1.26382430       0.00346987       0.00017341      -0.00556802
H       -2.13961328      -0.00000406       3.73572893       0.00118927      -0.00012118       0.00058237
