24
Properties=species:S:1:pos:R:3:forces:R:3 charge=0 spin=1 programa=fairchem-core versao=2.22.0 modelo=uma-s-1p2p1 tarefa=omol ase=3.29.0 convergiu=T fmax_criterio=0.01 energy=-12638.576479082 free_energy=-12638.576479082 stress="0.001148644577635402 0.015369288621026265 -0.00017812118898237212 0.015369288621026265 0.01700764081449033 0.0001574392170015245 -0.00017812118898237212 0.0001574392170015245 -0.00010229418757755696" pbc="F F F"
C       -0.80893873       1.39019153      -1.74701787       0.00525465      -0.00460550      -0.00273908
C        0.39315520       0.69598555      -1.72294244       0.00054840      -0.00760490      -0.00069589
C        0.39280989      -0.69097513      -1.72696312       0.00051030      -0.00512048       0.00182810
C       -0.80944217      -1.38511348      -1.75517624       0.00193755       0.00076491       0.00202383
C       -2.01113905      -0.69172460      -1.77635726       0.00372235      -0.00389396      -0.00175265
C       -2.01052319       0.69711109      -1.77237573      -0.00263701      -0.00256609      -0.00188873
H       -0.80849672       2.47287974      -1.74172830      -0.00057862       0.00286130       0.00122473
H        1.33069197       1.23599643      -1.69156275      -0.00026962       0.00110204       0.00099089
H        1.33005507      -1.23193172      -1.69790313      -0.00305673       0.00337147      -0.00136936
H       -0.80903021      -2.46814700      -1.75526098       0.00024527       0.00885395      -0.00075399
H       -2.94880583      -1.23290305      -1.79778000       0.00274403       0.00282215       0.00102752
H       -2.94763324       1.23865589      -1.79114037      -0.00849760       0.00397718       0.00207062
C        0.79632638       1.38988612       1.77130170      -0.00053086       0.00077612      -0.00560292
C        1.99743891       0.69547278       1.78349222       0.00069459      -0.00037883       0.00149499
C        1.99590807      -0.69324339       1.77865625       0.00014816      -0.00265259       0.00002039
C        0.79332938      -1.38507459       1.76084678       0.00059718      -0.00005282       0.00839639
C       -0.40828889      -0.68970679       1.74559250       0.00128862      -0.00002073      -0.00276512
C       -0.40676853       0.69722391       1.75051514      -0.00072824      -0.00199814       0.00151167
H        0.79736619       2.47263517       1.77207649      -0.00174388       0.00147150       0.00119156
H        2.93588362       1.23529864       1.79818615      -0.00100494       0.00290366       0.00074067
H        2.93307884      -1.23529824       1.79042016       0.00034215      -0.00279352      -0.00170984
H        0.79201270      -2.46789976       1.75532765      -0.00148187       0.00187122      -0.00297791
H       -1.34636567      -1.22917732       1.72007818       0.00052102       0.00044993      -0.00066595
H       -1.34381519       1.23867750       1.72866703       0.00197512       0.00046212       0.00040009
