24
Properties=species:S:1:pos:R:3:forces:R:3 charge=0 spin=1 programa=fairchem-core versao=2.22.0 modelo=uma-s-1p2p1 tarefa=omol ase=3.29.0 convergiu=T fmax_criterio=0.01 energy=-12638.563883450826 free_energy=-12638.563883450826 stress="-0.018390377952009956 -0.0021779580952080596 0.0005626151590358545 -0.0021779580952080596 -0.011562474497819455 -0.0020144643773053615 0.0005626151590358545 -0.0020144643773053615 0.06329836045611865" pbc="F F F"
C       -0.00697060       1.39099641      -2.48962511      -0.00072984       0.00280625       0.00075795
C        1.19519099       0.69648889      -2.48674340      -0.00317670       0.00620023      -0.00058494
C        1.19511178      -0.69190067      -2.48985574       0.00095301       0.00345994       0.00033041
C       -0.00720613      -1.38600772      -2.49521214      -0.00423639       0.00101147       0.00293889
C       -1.20932347      -0.69152648      -2.49806140      -0.00246877       0.00485279      -0.00331768
C       -1.20936247       0.69697163      -2.49529595      -0.00021962       0.00355652       0.00380425
H       -0.00699751       2.47338748      -2.48621729       0.00141436      -0.00198363       0.00631793
H        2.13238491       1.23813736      -2.48109735       0.00139790      -0.00117710      -0.00066167
H        2.13264785      -1.23272275      -2.48785743       0.00219379      -0.00658817       0.00421443
H       -0.00825498      -2.46821452      -2.49444538       0.00455665      -0.00471989      -0.00017815
H       -2.14658734      -1.23292355      -2.50293366      -0.00259949      -0.00185456       0.00552855
H       -2.14643167       1.23921967      -2.49580256       0.00336009      -0.00617860      -0.00209227
C       -0.00313477       0.01073475       3.89592449      -0.00269640       0.00392540      -0.00041393
C        1.19668302       0.00479740       3.19782998      -0.00009310      -0.00600863       0.00283448
C        1.19189490      -0.00391227       1.80974199       0.00080925       0.00833572      -0.00159750
C       -0.01107752      -0.00607109       1.11725186      -0.00179063      -0.00365858      -0.00089241
C       -1.21029101      -0.00050967       1.81642920      -0.00227389      -0.00004428      -0.00038769
C       -1.20703522       0.00795731       3.20464924       0.00012212      -0.00083676       0.00263129
H        0.00011153       0.01864793       4.97859038      -0.00103512      -0.00369349      -0.00456379
H        2.13579074       0.00557876       3.73638628       0.00241379       0.00417937       0.00204113
H        2.12731593      -0.00709994       1.26456489       0.00445445      -0.00465423      -0.00651194
H       -0.01347613      -0.01281359       0.03520803      -0.00332710       0.00179001      -0.00515494
H       -2.14911008      -0.00259069       1.27675844       0.00200125       0.00001696      -0.00418253
H       -2.14306398       0.01219472       3.74876468       0.00097039       0.00126323      -0.00085984
