24
Properties=species:S:1:pos:R:3:forces:R:3 charge=0 spin=1 programa=fairchem-core versao=2.22.0 modelo=uma-s-1p2p1 tarefa=omol ase=3.29.0 convergiu=T fmax_criterio=0.01 energy=-12638.526861256298 free_energy=-12638.526861256298 stress="0.0020710582579868734 -0.0013484563086837691 -0.0019341211723729922 -0.0013484563086837691 0.009352790874849838 -0.0018537189306109883 -0.0019341211723729922 -0.0018537189306109883 0.0018530370968501408" pbc="F F F"
C       -0.00180591       1.38963142      -1.94597177       0.00139724       0.00007321       0.00074384
C        1.19952385       0.69514966      -1.94374051       0.00068190      -0.00052238      -0.00124110
C        1.19899598      -0.69257868      -1.94650340       0.00574867       0.00201948      -0.00087452
C       -0.00299333      -1.38622554      -1.95075703       0.00633350      -0.00107998       0.00123954
C       -1.20435929      -0.69155811      -1.95252335      -0.00432816      -0.00636354      -0.00138062
C       -1.20371273       0.69615558      -1.94998953      -0.00226982      -0.00128073      -0.00083467
H       -0.00104287       2.47226647      -1.94094775      -0.00199363       0.00014091       0.00348378
H        2.13719341       1.23624113      -1.93546346       0.00220149      -0.00101032      -0.00231771
H        2.13704447      -1.23330874      -1.94185621      -0.00542193      -0.00349528       0.00340700
H       -0.00291537      -2.46908000      -1.94781968      -0.00300380       0.00743907      -0.00268722
H       -2.14243131      -1.23234165      -1.95246587       0.00380524       0.00184935       0.00290308
H       -2.14106054       1.23771069      -1.94675233      -0.00364262       0.00175351      -0.00200824
C        0.00760481       1.38437562       1.95363374      -0.00212201      -0.00157309       0.00169592
C        1.20539846       0.68345763       1.94841854       0.00100847       0.00365869      -0.00238818
C        1.19735193      -0.70424144       1.94206822      -0.00225116       0.00099854       0.00531934
C       -0.00852906      -1.39092466       1.94045648       0.00071466      -0.00057980      -0.00790636
C       -1.20625661      -0.69011649       1.93982090       0.00057196      -0.00039272       0.00689991
C       -1.19829283       0.69751759       1.94771964       0.00198194       0.00050736      -0.00452806
H        0.01364251       2.46704467       1.95867650       0.00193659      -0.00145829      -0.00795333
H        2.14619294       1.21937708       1.94431841      -0.00236563      -0.00110332       0.00593068
H        2.13153288      -1.25143566       1.93450386       0.00080729       0.00242402       0.00235753
H       -0.01472289      -2.47348993       1.93475560      -0.00101733      -0.00227837      -0.00781173
H       -2.14694345      -1.22587874       1.92939298      -0.00134672      -0.00134295       0.00551269
H       -2.13298645       1.24392696       1.94424193       0.00257387       0.00161664       0.00243843
